36

Si      0.086378000000000     -0.067824250000000     -0.212978120000000
C       1.427590160000000      0.826368990000000      0.570689120000000
Si      1.139770010000000      1.003459470000000      2.338709770000000
C       2.873246960000000      1.801798330000000      3.004120970000000
Si      1.435148070000000      2.675385490000000      0.042854120000000
C       3.185776850000000      3.450682590000000      0.557670990000000
Si      3.092063490000000      3.671161800000000      2.427696990000000
C       4.703189890000000      4.759501800000000      3.120460320000000
Si      3.029177120000000      5.239006320000000     -0.094122520000000
C       4.679704030000000      6.069481740000000      0.394695150000000
Si      4.717919340000000      6.244535990000000      2.119122690000000
C       5.952222890000000      7.346751040000000      2.984759560000000
Si      3.067303720000000     -0.008056170000000     -0.047707560000000
C       4.613587790000000      0.772940240000000      0.439921130000000
Si      4.437333690000000      1.100563680000000      2.484659420000000
C       5.933807390000000      1.820827270000000      3.240329710000000
Si      4.799271430000000      2.587622770000000      0.103893390000000
C       6.301793120000000      3.479224250000000      0.786226530000000
Si      6.220031730000000      3.559515100000000      2.761432880000000
C       7.787681980000000      4.303034280000000      3.219560620000000
Si      6.409125070000000      5.279595090000000      0.018989200000000
C       7.852638850000000      6.255393550000000      0.812614350000000
Si      7.831871340000000      6.343622570000000      2.681005140000000
C       9.432950880000000      7.113400130000000      3.161218630000000
Si      6.305296590000000      0.020652560000000      0.004247610000000
C       7.646891630000000      0.992123180000000      0.732833380000000
Si      7.350768820000000      0.685730480000000      2.490281160000000
C       9.143827450000000      1.846166410000000      3.387565680000000
Si      7.977394300000000      2.714149360000000      0.163949640000000
C       9.464101540000000      3.638253160000000      0.878081300000000
Si      9.374051250000001      3.522269330000000      2.694179690000000
C      11.153117200000001      4.616748980000000      3.435387440000000
Si      9.334660230000001      5.453733130000000      0.170589920000000
C      11.190609680000000      6.274508280000000      0.831881670000000
Si     10.839093780000001      6.255008030000000      2.629542620000000
C      12.427690200000001      7.201307220000000      3.362259450000000