36

Si     -0.003331120000000     -0.178326460000000     -0.152494690000000
C       1.324265190000000      0.822114170000000      0.496747620000000
Si      1.467473520000000      1.064328990000000      2.296843740000000
C       2.853235340000000      1.826670600000000      3.148697540000000
Si      1.528044720000000      2.784806100000000     -0.036909410000000
C       3.051539070000000      3.459675920000000      0.735706620000000
Si      2.936013010000000      3.756024110000000      2.482664080000000
C       4.613529080000000      4.567796350000000      3.174671710000000
Si      2.982272520000000      5.194854960000000     -0.182007510000000
C       4.666605150000000      5.900452670000000      0.487151160000000
Si      4.553915210000000      6.320430250000000      2.299408010000000
C       6.057882380000000      7.290352450000000      3.038115210000000
Si      3.100750390000000      0.052856080000000     -0.106045830000000
C       4.702626550000000      1.148882410000000      0.666169800000000
Si      4.637155010000000      0.830680560000000      2.766427350000000
C       6.229724790000000      1.861652800000000      3.080079700000000
Si      4.787990090000000      2.808751640000000      0.078655340000000
C       6.423095350000000      3.613853340000000      0.965194730000000
Si      5.998326970000000      3.589706110000000      2.655518600000000
C       7.521260260000000      4.413764000000000      3.284196880000000
Si      6.377514800000000      5.076273340000000     -0.054654170000000
C       7.794522990000000      6.258698250000000      0.429244400000000
Si      7.669809730000000      6.186791720000000      2.304937040000000
C       9.429016060000000      7.041752700000000      3.248907680000000
Si      6.342697600000000      0.170154050000000     -0.114445090000000
C       7.894982070000000      0.824289190000000      0.882058510000000
Si      7.625613280000000      0.873362090000000      2.608013680000000
C       9.254273939999999      1.904996080000000      3.220690550000000
Si      7.957989280000000      2.593753850000000      0.296314110000000
C       9.517899490000000      3.647322110000000      0.787031140000000
Si      9.148699810000000      3.646261540000000      2.773660280000000
C      10.882196570000000      4.412628440000000      3.531766370000000
Si      9.456734850000000      5.296684640000000      0.134005270000000
C      10.919103809999999      6.039532200000000      0.648305290000000
Si     10.913537570000001      6.328856330000000      2.651787640000000
C      12.553883400000000      7.262554610000000      3.270137450000000