36

Si     -0.003331120000000     -0.178326460000000     -0.152494690000000
C       1.324265190000000      0.822114170000000      0.496747620000000
Si      1.467473520000000      1.064328990000000      2.296843740000000
C       2.853235340000000      1.826670600000000      3.148697540000000
Si      1.528044720000000      2.784806100000000     -0.036909410000000
C       3.051539070000000      3.459675920000000      0.735706620000000
Si      2.936013010000000      3.756024110000000      2.482664080000000
C       4.613529080000000      4.567796350000000      3.174671710000000
Si      2.982272520000000      5.194854960000000     -0.182007510000000
C       4.666605150000000      5.900452670000000      0.487151160000000
Si      4.553915210000000      6.320430250000000      2.299408010000000
C       6.057882380000000      7.290352450000000      3.038115210000000
Si      3.100750390000000      0.052856080000000     -0.106045830000000
C       4.702626550000000      1.148882410000000      0.666169800000000
Si      4.637155010000000      0.830680560000000      2.766427350000000
C       6.229724790000000      1.861652800000000      3.080079700000000
Si      4.787990090000000      2.808751640000000      0.078655340000000
C       6.423095350000000      3.613853340000000      0.965194730000000
Si      5.998326970000000      3.589706110000000      2.655518600000000
C       7.521260260000000      4.413764000000000      3.284196880000000
Si      6.377514800000000      5.076273340000000     -0.054654170000000
C       7.794522990000000      6.258698250000000      0.429244400000000
Si      7.669809730000000      6.186791720000000      2.304937040000000
C       9.429016060000000      7.041752700000000      3.248907680000000
Si      6.342697600000000      0.170154050000000     -0.114445090000000
C       7.894982070000000      0.824289190000000      0.882058510000000
Si      7.625613280000000      0.873362090000000      2.608013680000000
C       9.254273939999999      1.904996080000000      3.220690550000000
Si      7.957989280000000      2.593753850000000      0.296314110000000
C       9.517899490000000      3.647322110000000      0.787031140000000
Si      9.148699810000000      3.646261540000000      2.773660280000000
C      10.882196570000000      4.412628440000000      3.531766370000000
Si      9.456734850000000      5.296684640000000      0.134005270000000
C      10.919103809999999      6.039532200000000      0.648305290000000
Si     10.913537570000001      6.328856330000000      2.651787640000000
C      12.553883400000000      7.262554610000000      3.270137450000000
36

Si      0.086378000000000     -0.067824250000000     -0.212978120000000
C       1.427590160000000      0.826368990000000      0.570689120000000
Si      1.139770010000000      1.003459470000000      2.338709770000000
C       2.873246960000000      1.801798330000000      3.004120970000000
Si      1.435148070000000      2.675385490000000      0.042854120000000
C       3.185776850000000      3.450682590000000      0.557670990000000
Si      3.092063490000000      3.671161800000000      2.427696990000000
C       4.703189890000000      4.759501800000000      3.120460320000000
Si      3.029177120000000      5.239006320000000     -0.094122520000000
C       4.679704030000000      6.069481740000000      0.394695150000000
Si      4.717919340000000      6.244535990000000      2.119122690000000
C       5.952222890000000      7.346751040000000      2.984759560000000
Si      3.067303720000000     -0.008056170000000     -0.047707560000000
C       4.613587790000000      0.772940240000000      0.439921130000000
Si      4.437333690000000      1.100563680000000      2.484659420000000
C       5.933807390000000      1.820827270000000      3.240329710000000
Si      4.799271430000000      2.587622770000000      0.103893390000000
C       6.301793120000000      3.479224250000000      0.786226530000000
Si      6.220031730000000      3.559515100000000      2.761432880000000
C       7.787681980000000      4.303034280000000      3.219560620000000
Si      6.409125070000000      5.279595090000000      0.018989200000000
C       7.852638850000000      6.255393550000000      0.812614350000000
Si      7.831871340000000      6.343622570000000      2.681005140000000
C       9.432950880000000      7.113400130000000      3.161218630000000
Si      6.305296590000000      0.020652560000000      0.004247610000000
C       7.646891630000000      0.992123180000000      0.732833380000000
Si      7.350768820000000      0.685730480000000      2.490281160000000
C       9.143827450000000      1.846166410000000      3.387565680000000
Si      7.977394300000000      2.714149360000000      0.163949640000000
C       9.464101540000000      3.638253160000000      0.878081300000000
Si      9.374051250000001      3.522269330000000      2.694179690000000
C      11.153117200000001      4.616748980000000      3.435387440000000
Si      9.334660230000001      5.453733130000000      0.170589920000000
C      11.190609680000000      6.274508280000000      0.831881670000000
Si     10.839093780000001      6.255008030000000      2.629542620000000
C      12.427690200000001      7.201307220000000      3.362259450000000
36

Si      0.048090730000000     -0.020278240000000      0.069678290000000
C       1.637197970000000      1.023586940000000      0.724910010000000
Si      1.559258820000000      0.840731450000000      2.570804910000000
C       3.144617870000000      1.737508800000000      3.286730580000000
Si      1.463895620000000      2.724516930000000     -0.130290220000000
C       3.090077360000000      3.522350590000000      0.802412030000000
Si      2.926615260000000      3.544741420000000      2.533869990000000
C       4.541334450000000      4.282431750000000      3.042984670000000
Si      3.244794210000000      5.099119500000000      0.013841930000000
C       4.687184120000000      6.137268500000000      0.577489020000000
Si      4.698816170000000      6.180085900000000      2.487712920000000
C       6.222919140000000      7.045928840000000      3.224179670000000
Si      3.106100510000000      0.044730960000000      0.022941550000000
C       4.555117940000000      0.845682510000000      0.709084800000000
Si      4.757698990000000      1.127498610000000      2.570991370000000
C       6.225202870000000      1.855879080000000      3.175014600000000
Si      4.684184420000000      2.711310280000000      0.039445030000000
C       6.227052170000000      3.578638540000000      0.607477630000000
Si      6.080638890000000      3.638357130000000      2.580100910000000
C       7.662815830000000      4.494423420000000      3.433598540000000
Si      6.282291630000000      5.403864640000000     -0.003200670000000
C       7.769585700000000      6.227252480000000      0.616718350000000
Si      7.820594840000000      6.463509570000000      2.501902970000000
C       9.416615600000000      7.349591380000000      3.077698090000000
Si      6.119103010000000      0.009271070000000      0.054399760000000
C       7.583340000000000      0.762854230000000      0.696728020000000
Si      7.668250410000000      0.871625660000000      2.510082350000000
C       9.160663660000001      1.835218560000000      3.193680220000000
Si      7.692456540000000      2.675907990000000     -0.010006570000000
C       9.294199230000000      3.561772890000000      0.507701320000000
Si      9.065396209999999      3.490269140000000      2.435419840000000
C      10.642730759999999      4.542190000000000      3.119093300000000
Si      9.442444569999999      5.398962450000000      0.129917050000000
C      10.905059169999999      6.216041440000000      0.527980090000000
Si     10.974657799999999      6.323065610000000      2.600466860000000
C      12.563636870000000      6.971955190000000      3.125081640000000
36

Si      0.061499000000000      0.043179960000000      0.127161400000000
C       1.563828950000000      0.947134220000000      0.662942500000000
Si      1.578142430000000      0.894394060000000      2.562109040000000
C       3.144582530000000      1.780168280000000      3.233604540000000
Si      1.591845730000000      2.696561880000000     -0.028743040000000
C       3.141846840000000      3.657831870000000      0.693640840000000
Si      3.115997610000000      3.540102220000000      2.527155350000000
C       4.600912560000000      4.353967250000000      3.179478110000000
Si      3.126141190000000      5.414768690000000      0.033995770000000
C       4.623284370000000      6.336045100000000      0.714699150000000
Si      4.661629620000000      6.193209240000000      2.590415020000000
C       6.180655610000000      7.106550820000000      3.221157750000000
Si      3.121382870000000      0.135359540000000     -0.036705300000000
C       4.691503350000000      0.930931690000000      0.679411090000000
Si      4.600105530000000      0.828631100000000      2.544118360000000
C       6.087399310000000      1.760716650000000      3.165287390000000
Si      4.704897690000000      2.708328910000000     -0.006613710000000
C       6.226191600000000      3.599752440000000      0.633396940000000
Si      6.116406550000000      3.546249390000000      2.571855450000000
C       7.702440540000000      4.515326020000000      3.186622440000000
Si      6.180871180000000      5.372900010000000      0.024821260000000
C       7.758273530000000      6.316572830000000      0.651227660000000
Si      7.689129480000000      6.247285490000000      2.446775470000000
C       9.306303030000000      7.070881870000000      3.147127200000000
Si      6.243715180000000      0.034781140000000      0.063491790000000
C       7.801592290000000      0.909435480000000      0.596470040000000
Si      7.738964920000000      0.845412360000000      2.534780470000000
C       9.227496540000001      1.862382350000000      3.180687020000000
Si      7.721570220000000      2.700389430000000      0.005896270000000
C       9.316831629999999      3.610971390000000      0.617876220000000
Si      9.263333149999999      3.593423170000000      2.523729610000000
C      10.814883280000000      4.400894400000000      3.148687000000000
Si      9.283811500000001      5.347721760000000     -0.059536580000000
C      10.838344180000000      6.263688560000000      0.552608270000000
Si     10.798912410000000      6.146541500000000      2.550666330000000
C      12.389340030000000      7.123960270000000      3.189964310000000
36

Si     -0.035841420000000      0.034177020000000     -0.138637810000000
C       1.477581320000000      0.736489840000000      0.591581790000000
Si      1.465258210000000      0.826404140000000      2.478915680000000
C       3.052331950000000      1.793288620000000      3.019574150000000
Si      1.578667150000000      2.680542260000000     -0.072555260000000
C       3.115148480000000      3.613839330000000      0.618857520000000
Si      2.985593330000000      3.603858220000000      2.535302830000000
C       4.639282540000000      4.412476640000000      3.101786690000000
Si      3.092317410000000      5.397324930000000      0.028430860000000
C       4.674729560000000      6.263497000000000      0.549134430000000
Si      4.602561680000000      6.311422590000000      2.526467290000000
C       6.264630700000000      7.136038960000000      3.220097160000000
Si      3.168544500000000     -0.107972140000000      0.027604550000000
C       4.641614930000000      0.875818380000000      0.640967260000000
Si      4.578994790000000      0.938047640000000      2.528908870000000
C       6.209525320000000      1.704103850000000      3.242980200000000
Si      4.707327260000000      2.726477720000000      0.048029130000000
C       6.248445600000000      3.630446300000000      0.737718730000000
Si      6.219056470000000      3.535419370000000      2.595878880000000
C       7.860799860000000      4.488576680000000      3.255774830000000
Si      6.182801250000000      5.354709080000000      0.027090950000000
C       7.783240490000000      6.236670350000000      0.660899280000000
Si      7.808131290000000      6.253650520000000      2.615415820000000
C       9.391804179999999      7.123264630000000      3.170673470000000
Si      6.261148830000000      0.032175120000000     -0.052634250000000
C       7.775541880000000      0.861829780000000      0.617676670000000
Si      7.661544080000000      0.890001970000000      2.602229620000000
C       9.280432050000000      1.801546360000000      3.125786500000000
Si      7.728840030000000      2.698607970000000      0.108024200000000
C       9.346461420000001      3.560888250000000      0.671446230000000
Si      9.256747760000000      3.587948020000000      2.516571140000000
C      10.815987130000000      4.515604360000000      3.256981380000000
Si      9.325678220000000      5.372644760000000      0.030675200000000
C      10.813386650000000      6.281066120000000      0.588803560000000
Si     10.842575260000000      6.293472760000000      2.614439540000000
C      12.418562070000000      7.185168690000000      3.279428860000000
36

Si      0.051198520000000     -0.224964130000000     -0.253073780000000
C       1.612407150000000      0.786085170000000      0.384790850000000
Si      1.455522440000000      1.090337910000000      2.381548650000000
C       3.088572660000000      1.811971450000000      3.022238490000000
Si      1.502269530000000      2.496911330000000     -0.029994890000000
C       2.968147610000000      3.493117020000000      0.728529130000000
Si      2.927046320000000      3.747937610000000      2.436117940000000
C       4.556853770000000      4.624860410000000      3.249379180000000
Si      2.970430280000000      5.281386140000000     -0.276426220000000
C       4.573071810000000      6.126113810000000      0.269189170000000
Si      4.777437180000000      6.419686660000000      2.378151430000000
C       6.156223820000000      7.276510870000000      3.023510930000000
Si      3.151202250000000      0.014684610000000      0.040034540000000
C       4.691278750000000      0.854526480000000      0.694398390000000
Si      4.597603850000000      0.891444450000000      2.582192240000000
C       6.103301560000000      1.815071350000000      3.189418250000000
Si      4.703877840000000      2.650873410000000      0.204149960000000
C       6.203268460000000      3.654494070000000      0.856105160000000
Si      5.947569040000000      3.578773420000000      2.610721460000000
C       7.793816280000000      4.484003580000000      3.338953220000000
Si      6.182327510000000      5.444468060000000     -0.188211020000000
C       7.791958870000000      6.194805930000000      0.222529300000000
Si      7.764853310000000      6.107403840000000      2.531460770000000
C       9.194612310000000      7.105093620000000      3.146447680000000
Si      6.347567740000000     -0.077541870000000      0.205127100000000
C       7.712105120000000      0.831356920000000      0.617762380000000
Si      7.685664010000000      0.908078590000000      2.743104670000000
C       9.220642500000000      1.835628240000000      3.107966950000000
Si      7.793464430000000      2.833978200000000      0.485210640000000
C       9.591978890000000      3.598891690000000      0.804126350000000
Si      9.280960650000001      3.649700740000000      2.814882640000000
C      10.746711729999999      4.666444520000000      3.449025410000000
Si      9.491419810000000      5.198109230000000     -0.141498480000000
C      11.081614139999999      6.174889900000000      0.645729090000000
Si     10.907684800000000      6.313362230000000      2.697105460000000
C      12.470043990000001      7.130592070000000      3.131363220000000
36

Si     -0.063069870000000     -0.089696500000000     -0.140384220000000
C       1.449121990000000      0.923734380000000      0.588918430000000
Si      1.490372150000000      0.927299950000000      2.485622020000000
C       3.013115320000000      1.754323800000000      2.970259240000000
Si      1.547442200000000      2.701850440000000     -0.122773530000000
C       3.053023310000000      3.623727830000000      0.609464620000000
Si      3.048664720000000      3.559439300000000      2.520582390000000
C       4.566499060000000      4.463784000000000      3.131471720000000
Si      3.169890360000000      5.388542470000000      0.091622170000000
C       4.707198940000000      6.231741510000000      0.634038990000000
Si      4.559144570000000      6.296742800000000      2.545909180000000
C       6.124896390000000      7.150824720000000      3.209759750000000
Si      3.077287080000000      0.042760920000000     -0.001879880000000
C       4.608087400000000      0.916738200000000      0.627060420000000
Si      4.675636050000000      0.852332920000000      2.552331560000000
C       6.151462360000000      1.819926930000000      3.163323550000000
Si      4.675732530000000      2.692432820000000      0.077049830000000
C       6.257037960000000      3.587941040000000      0.733458420000000
Si      6.219335800000000      3.580631490000000      2.544349940000000
C       7.731898570000000      4.447025900000000      3.256086500000000
Si      6.372602410000000      5.312512760000000      0.038243760000000
C       7.775272440000000      6.259704110000000      0.733675000000000
Si      7.758059570000000      6.238660780000000      2.649448900000000
C       9.343612120000000      7.084092610000000      3.210470560000000
Si      6.146543440000000      0.008909350000000     -0.038464610000000
C       7.686035180000000      0.894666020000000      0.618081310000000
Si      7.690023770000000      0.929274420000000      2.554505860000000
C       9.153382260000001      1.807862170000000      3.246491410000000
Si      7.818357990000000      2.657392090000000      0.076251530000000
C       9.349812150000000      3.647247560000000      0.644417240000000
Si      9.298121670000000      3.611479370000000      2.572302620000000
C      10.842548519999999      4.388471730000000      3.285109690000000
Si      9.345029470000000      5.418230610000000      0.043154850000000
C      10.931238170000000      6.325179520000000      0.646071190000000
Si     10.918409400000000      6.190710630000000      2.499350560000000
C      12.322528200000001      7.149446230000000      3.212554040000000
36

Si      0.032916850000000      0.034304930000000      0.066782730000000
C       1.768600730000000      0.801053970000000      0.688735140000000
Si      1.565870360000000      0.856096520000000      2.657513340000000
C       3.081082390000000      1.852600470000000      3.356737610000000
Si      1.685124390000000      2.653798830000000     -0.177831990000000
C       3.056074780000000      3.392704040000000      0.588763760000000
Si      2.970094340000000      3.616879740000000      2.409614650000000
C       4.517127660000000      4.465595910000000      3.152677520000000
Si      3.054184200000000      5.287820620000000     -0.062818520000000
C       4.744335740000000      6.267856100000000      0.555148550000000
Si      4.716226570000000      6.174690850000000      2.550810500000000
C       6.184766290000000      7.214912820000000      3.122747570000000
Si      3.118055180000000      0.136752300000000     -0.032129790000000
C       4.741425630000000      0.963741830000000      0.687238390000000
Si      4.598872760000000      1.009822570000000      2.675071320000000
C       6.159638690000000      1.773846360000000      3.297375460000000
Si      4.649747880000000      2.635029820000000     -0.082852490000000
C       6.174582520000000      3.474058370000000      0.537266330000000
Si      5.963347890000000      3.627296980000000      2.536694780000000
C       7.761771210000000      4.521500430000000      3.157068080000000
Si      6.351215680000000      5.435021630000000      0.038410510000000
C       7.910790930000000      6.355027500000000      0.742010360000000
Si      7.942708020000000      6.360216820000000      2.699921300000000
C       9.506978549999999      7.360108770000000      3.208846830000000
Si      6.105428830000000     -0.007409800000000      0.210923160000000
C       7.683607440000000      0.963579080000000      0.693074810000000
Si      7.683547110000000      0.904794390000000      2.591385980000000
C       9.268545010000000      1.747787290000000      3.258458380000000
Si      7.735507740000000      2.647185450000000     -0.123466430000000
C       9.283495680000000      3.488218160000000      0.452280790000000
Si      9.147317839999999      3.387160270000000      2.507988880000000
C      10.620157360000000      4.451450090000000      2.986217470000000
Si      9.317501090000000      5.362417080000000      0.141396000000000
C      10.876663080000000      6.221922520000000      0.567291690000000
Si     10.835770320000000      6.247190640000000      2.442656830000000
C      12.368166940000000      7.044580630000000      3.228282750000000
36

Si     -0.111075930000000     -0.026567690000000      0.014887920000000
C       1.524734570000000      0.935504070000000      0.643242580000000
Si      1.603689400000000      0.892150740000000      2.472362000000000
C       3.101814580000000      1.683382290000000      3.145439330000000
Si      1.581347720000000      2.740239120000000      0.046258200000000
C       3.151036270000000      3.591157070000000      0.647705490000000
Si      3.020317790000000      3.599641450000000      2.569226540000000
C       4.726438430000000      4.401570670000000      3.154291650000000
Si      3.039991750000000      5.459530100000000      0.053467410000000
C       4.572071170000000      6.322890060000000      0.687783140000000
Si      4.583376660000000      6.411207940000000      2.525026520000000
C       6.109421240000000      7.194053750000000      3.120902550000000
Si      2.969423680000000     -0.108873250000000     -0.164791650000000
C       4.538131820000000      0.704972840000000      0.625289690000000
Si      4.720518430000000      0.846125080000000      2.395978840000000
C       6.358963530000000      1.855291090000000      3.173889840000000
Si      4.711594010000000      2.531081360000000      0.096453370000000
C       6.282363840000000      3.521931380000000      0.639693580000000
Si      6.245888040000000      3.786499200000000      2.523760380000000
C       7.644017890000000      4.628942430000000      3.319489370000000
Si      6.208932050000000      5.270347730000000     -0.076827230000000
C       7.594634710000000      6.100405290000000      0.653020930000000
Si      7.726220990000000      6.232814860000000      2.500472540000000
C       9.294662890000000      7.054053740000000      3.209385170000000
Si      6.179328930000000     -0.035626780000000     -0.097501560000000
C       7.586308380000000      0.917972950000000      0.549297190000000
Si      7.770150520000000      0.892944710000000      2.387055060000000
C       9.209501270000001      1.903863260000000      3.082351610000000
Si      7.917993200000000      2.713087100000000      0.134679620000000
C       9.350270230000000      3.500314440000000      0.785997890000000
Si      9.448301200000000      3.598128900000000      2.779798080000000
C      10.852575200000000      4.574250240000000      3.344446060000000
Si      9.300303570000001      5.398545340000000      0.120029150000000
C      10.729727020000000      6.159082400000000      0.682366140000000
Si     10.852818879999999      6.236134550000000      2.587820700000000
C      12.389735670000000      7.151103960000000      3.241003470000000
36

Si      0.091496690000000     -0.085542960000000     -0.006841360000000
C       1.554510590000000      0.919858560000000      0.637015730000000
Si      1.562074460000000      0.997363070000000      2.533591760000000
C       3.156977920000000      1.723692590000000      3.183813440000000
Si      1.535948170000000      2.711116710000000     -0.012323120000000
C       3.063669330000000      3.657544310000000      0.640805950000000
Si      3.069090450000000      3.514982020000000      2.469223650000000
C       4.647008040000000      4.470861950000000      3.157590600000000
Si      3.052520540000000      5.392247500000000     -0.059495460000000
C       4.543394260000000      6.255282050000000      0.649584040000000
Si      4.655269030000000      6.247387410000000      2.590599060000000
C       6.165518420000000      7.167468710000000      3.160314260000000
Si      3.095441670000000      0.021958930000000     -0.062446760000000
C       4.655735770000000      0.937899380000000      0.686747140000000
Si      4.661665620000000      0.772332780000000      2.577041950000000
C       6.194071500000000      1.715563580000000      3.093905470000000
Si      4.702314210000000      2.688218410000000      0.039928390000000
C       6.189574830000000      3.623320060000000      0.758920620000000
Si      6.267454930000000      3.529506330000000      2.586102660000000
C       7.738679440000000      4.548154910000000      3.198668360000000
Si      6.162462230000000      5.344670140000000      0.042733960000000
C       7.672059050000000      6.339548350000000      0.658922430000000
Si      7.672917890000000      6.318405940000000      2.476396030000000
C       9.219605850000001      7.076756880000000      3.233715320000000
Si      6.211395610000000     -0.054274360000000      0.043048270000000
C       7.779541670000000      0.851887360000000      0.693912280000000
Si      7.844190080000000      0.872739180000000      2.550931990000000
C       9.294918989999999      1.961881470000000      3.119658750000000
Si      7.777422970000000      2.663694680000000      0.072449180000000
C       9.268395699999999      3.626472450000000      0.654476180000000
Si      9.299451080000001      3.604498380000000      2.506797940000000
C      10.883327390000000      4.448563280000000      3.207077330000000
Si      9.204321269999999      5.388946510000000     -0.017652800000000
C      10.753756559999999      6.324660290000000      0.611243600000000
Si     10.845534420000000      6.241263120000000      2.585602790000000
C      12.371635350000000      7.177752500000000      3.248078870000000
36

Si     -0.017781960000000      0.091597840000000     -0.152209130000000
C       1.480777710000000      0.938968150000000      0.575665840000000
Si      1.503550210000000      0.812437750000000      2.538700930000000
C       3.061808660000000      1.842171070000000      3.050007340000000
Si      1.632816620000000      2.653686560000000     -0.122331860000000
C       3.160609640000000      3.609351840000000      0.614887840000000
Si      3.057613730000000      3.600843650000000      2.530816150000000
C       4.599160880000000      4.341376390000000      3.134833970000000
Si      3.085596430000000      5.348360560000000      0.019222310000000
C       4.629893990000000      6.337405370000000      0.648849800000000
Si      4.602649950000000      6.253201270000000      2.537150120000000
C       6.149727740000000      7.155208200000000      3.270238000000000
Si      3.129340130000000     -0.090597040000000      0.009486790000000
C       4.745785200000000      0.850178170000000      0.627853720000000
Si      4.674809080000000      0.986894740000000      2.451598200000000
C       6.128008530000000      1.853377590000000      3.204347830000000
Si      4.632364790000000      2.635026340000000      0.066917060000000
C       6.142481390000000      3.601429690000000      0.714037040000000
Si      6.218307300000000      3.523112170000000      2.578232320000000
C       7.731518350000000      4.431905340000000      3.294612350000000
Si      6.195625400000000      5.449677220000000     -0.017746930000000
C       7.738762860000000      6.203459470000000      0.749701540000000
Si      7.725201000000000      6.162772200000000      2.672012910000000
C       9.300202629999999      7.258125460000000      3.130638330000000
Si      6.283503720000000      0.049511640000000     -0.027248800000000
C       7.755047220000000      1.066646200000000      0.585641860000000
Si      7.813112840000000      0.885208580000000      2.577967020000000
C       9.280787640000000      1.717352960000000      3.266405430000000
Si      7.731949000000000      2.804942300000000      0.116130660000000
C       9.396877370000000      3.562503280000000      0.680513000000000
Si      9.339835140000000      3.527415770000000      2.538277830000000
C      10.792729290000000      4.503288970000000      3.279955460000000
Si      9.306997539999999      5.345072250000000      0.091276040000000
C      10.871776260000001      6.318558330000000      0.663485350000000
Si     10.767382800000000      6.171660770000000      2.485342810000000
C      12.252126369999999      7.139264600000000      3.154437640000000
36

Si      0.105425770000000     -0.143710370000000     -0.161351770000000
C       1.563987220000000      0.921976180000000      0.508869750000000
Si      1.193547450000000      0.955346040000000      2.275242490000000
C       2.878544590000000      1.905809570000000      3.033531810000000
Si      1.627266030000000      2.814401460000000     -0.104645900000000
C       3.108891900000000      3.533906680000000      0.490151380000000
Si      3.077278780000000      3.560306610000000      2.578557110000000
C       4.336082630000000      4.619528550000000      3.161603940000000
Si      3.145312850000000      5.314346070000000     -0.233790660000000
C       4.652073190000000      6.226001460000000      0.543960570000000
Si      4.600319650000000      6.036513990000000      2.282223760000000
C       6.082239570000000      7.233141450000000      2.899363650000000
Si      3.045601070000000     -0.140721170000000      0.065163400000000
C       4.717303540000000      0.790193090000000      0.564800330000000
Si      4.584432120000000      1.030298090000000      2.264775910000000
C       6.033927970000000      1.944819280000000      3.281370650000000
Si      4.644981490000000      2.492810320000000      0.136909260000000
C       6.211175460000000      3.565288610000000      0.704298420000000
Si      6.186710230000000      3.818923750000000      2.751105110000000
C       7.652062410000000      4.631460070000000      3.365677140000000
Si      6.490866560000000      5.203171520000000     -0.004504910000000
C       7.881942900000000      6.038226280000000      0.827408040000000
Si      7.572869180000000      6.371534520000000      2.507476690000000
C       9.172911559999999      7.237880450000000      2.931035440000000
Si      6.227629940000000     -0.006307350000000      0.290027140000000
C       7.956813380000000      0.818768470000000      0.794343780000000
Si      7.802422270000000      1.010505140000000      2.658911240000000
C       9.377548150000001      1.910458630000000      3.299492270000000
Si      7.825401740000000      2.686979760000000      0.214033090000000
C       9.295226730000000      3.495633060000000      1.046762040000000
Si      9.219802050000000      3.793282670000000      2.774254920000000
C      11.032637520000000      4.418965090000000      3.337227470000000
Si      9.340037120000000      5.274898130000000      0.079216470000000
C      11.053145929999999      6.085873640000000      0.718180360000000
Si     10.868939100000000      6.201103580000000      2.537263490000000
C      12.501589040000001      7.205658290000000      3.097647040000000
36

Si     -0.038913320000000     -0.050269090000000      0.117758690000000
C       1.469124260000000      0.839203300000000      0.661577840000000
Si      1.490816870000000      0.941327060000000      2.534042980000000
C       3.093064260000000      1.751454050000000      3.241124090000000
Si      1.533811550000000      2.721008610000000      0.092197040000000
C       3.166437080000000      3.566331230000000      0.718897100000000
Si      3.143947750000000      3.528772740000000      2.588909260000000
C       4.604057670000000      4.456845130000000      3.238411300000000
Si      3.177507600000000      5.321453220000000      0.082002730000000
C       4.715290540000000      6.279442040000000      0.681156800000000
Si      4.678739370000000      6.300122790000000      2.556449190000000
C       6.276413250000000      7.207245210000000      3.238471720000000
Si      3.068161810000000      0.016247910000000     -0.062266780000000
C       4.588512290000000      0.925376460000000      0.670798030000000
Si      4.669324660000000      0.850254850000000      2.506904500000000
C       6.208673080000000      1.775989150000000      3.123595370000000
Si      4.672326950000000      2.690761700000000     -0.030885720000000
C       6.211497980000000      3.584149050000000      0.572069890000000
Si      6.194587000000000      3.549516260000000      2.417298710000000
C       7.736059570000000      4.547892900000000      3.195487060000000
Si      6.350776700000000      5.381210310000000     -0.055886770000000
C       7.790257270000000      6.290446260000000      0.608323120000000
Si      7.686328940000000      6.339231900000000      2.515349070000000
C       9.358209950000001      7.142670490000000      3.132768960000000
Si      6.165112310000000     -0.035764050000000      0.067658870000000
C       7.675137340000000      0.860871980000000      0.711204250000000
Si      7.757829210000000      0.959897300000000      2.616482560000000
C       9.220652950000000      1.865546840000000      3.258809730000000
Si      7.732135610000000      2.643761830000000     -0.076882080000000
C       9.229323570000000      3.673680200000000      0.630569930000000
Si      9.211207520000000      3.545284940000000      2.517681450000000
C      10.818735800000001      4.334748190000000      3.157887010000000
Si      9.338208140000001      5.358333380000000     -0.002666420000000
C      10.852808440000000      6.252761930000000      0.608860400000000
Si     10.807131790000000      6.236729850000000      2.496836070000000
C      12.306322390000000      7.172350140000000      3.225588450000000
36

Si      0.030540770000000      0.051814620000000      0.135028290000000
C       1.603884520000000      0.985984890000000      0.701012050000000
Si      1.616932680000000      0.945257480000000      2.588127480000000
C       3.147040120000000      1.742905800000000      3.188566000000000
Si      1.552697750000000      2.748728250000000     -0.016673510000000
C       3.203442420000000      3.561557770000000      0.638220010000000
Si      3.123590040000000      3.520475670000000      2.548858380000000
C       4.607428540000000      4.339815090000000      3.157924770000000
Si      3.055043480000000      5.409995740000000      0.057362350000000
C       4.666291550000000      6.272536460000000      0.711855720000000
Si      4.644927280000000      6.206029030000000      2.550206920000000
C       6.192217660000000      7.174844310000000      3.195627240000000
Si      3.154094430000000      0.141026280000000     -0.059938030000000
C       4.711078720000000      0.928517880000000      0.626372680000000
Si      4.594296000000000      0.816268740000000      2.529326090000000
C       6.189780840000000      1.732737450000000      3.191432360000000
Si      4.722188630000000      2.785995570000000     -0.004001670000000
C       6.293383290000000      3.522474530000000      0.637174590000000
Si      6.152322360000000      3.505983080000000      2.596958510000000
C       7.657660050000000      4.447374360000000      3.205056980000000
Si      6.185165850000000      5.373640120000000      0.028386230000000
C       7.725674620000000      6.298039390000000      0.564556290000000
Si      7.645485030000000      6.197570630000000      2.458135490000000
C       9.294616050000000      7.108363640000000      3.137972180000000
Si      6.247502570000000      0.045952470000000      0.016577350000000
C       7.810426550000000      0.881881540000000      0.587683120000000
Si      7.743194290000000      0.886897230000000      2.569983460000000
C       9.230893910000001      1.809791730000000      3.225874470000000
Si      7.718175950000000      2.663084020000000      0.035618010000000
C       9.296941530000000      3.617046080000000      0.554376170000000
Si      9.240350299999999      3.635833360000000      2.490206990000000
C      10.830229780000000      4.381770690000000      3.189206070000000
Si      9.256948460000000      5.364435610000000     -0.034761840000000
C      10.820831500000001      6.191670760000000      0.596834320000000
Si     10.808942490000000      6.178413290000000      2.560909070000000
C      12.381651480000000      7.109918620000000      3.169918050000000
36

Si     -0.183873430000000     -0.190024310000000      0.069240640000000
C       1.387148210000000      0.856330710000000      0.645091200000000
Si      1.331249190000000      1.121438340000000      2.431159170000000
C       2.955892950000000      1.880593640000000      3.227645100000000
Si      1.707392130000000      2.617665010000000     -0.166368100000000
C       3.206105240000000      3.281788340000000      0.806792250000000
Si      3.293072750000000      3.699109640000000      2.518465490000000
C       4.934097700000000      4.554421230000000      3.172650490000000
Si      2.970995480000000      5.195255800000000      0.213724910000000
C       4.548884000000000      6.137582400000000      0.830710910000000
Si      4.743816690000000      6.268127250000000      2.652577750000000
C       6.126286840000000      7.354125580000000      3.311906880000000
Si      2.905924480000000      0.161091270000000      0.003469430000000
C       4.621615420000000      0.758721810000000      0.362328510000000
Si      4.605416430000000      0.994148370000000      2.382594630000000
C       6.185211910000000      1.632471230000000      3.107084280000000
Si      4.892471720000000      2.811147860000000     -0.043512520000000
C       6.477574450000000      3.638877220000000      0.233518910000000
Si      6.509829550000000      3.534572270000000      2.354534810000000
C       7.917633760000000      4.450334660000000      3.196518740000000
Si      6.126362120000000      5.527318420000000      0.147238050000000
C       7.732332590000000      6.491208860000000      0.741595960000000
Si      7.576154510000000      6.293150720000000      2.754744380000000
C       9.197108990000000      7.022563490000000      3.202552660000000
Si      6.352901130000000     -0.166751600000000      0.114935530000000
C       7.801735470000000      0.925757940000000      0.669847860000000
Si      7.572903030000000      0.878366330000000      2.480570560000000
C       9.219119790000001      1.999484070000000      3.170342950000000
Si      7.903551730000000      2.504045970000000     -0.259670680000000
C       9.331900750000001      3.424596890000000      0.375601900000000
Si      9.355944870000000      3.426611910000000      2.303867350000000
C      10.804622030000001      4.310116860000000      2.960230610000000
Si      9.107693039999999      5.546796560000000      0.312490980000000
C      10.917773830000000      6.195433620000000      0.959844420000000
Si     10.719674820000000      6.275434890000000      2.802649320000000
C      12.300576050000000      7.145814100000000      3.253016160000000
36

Si     -0.125353690000000     -0.125209720000000     -0.068639720000000
C       1.513255780000000      0.878913000000000      0.537438330000000
Si      1.687281930000000      0.842452300000000      2.344358830000000
C       3.059586960000000      1.821219240000000      3.064506990000000
Si      1.680538030000000      2.650225180000000     -0.146900380000000
C       3.078318170000000      3.516931030000000      0.608732170000000
Si      3.032250670000000      3.714702730000000      2.551452460000000
C       4.705445570000000      4.566546510000000      3.070908410000000
Si      3.104406590000000      5.378232040000000      0.039089660000000
C       4.742360860000000      6.088825980000000      0.635824080000000
Si      4.625324120000000      6.306908950000000      2.595834450000000
C       6.197106770000000      7.117896140000000      3.144022990000000
Si      2.956298110000000     -0.138075280000000     -0.042277250000000
C       4.642187800000000      0.826285060000000      0.678259330000000
Si      4.753687670000000      0.927452210000000      2.558604080000000
C       6.130011060000000      1.920681970000000      3.219820710000000
Si      4.670468980000000      2.591080020000000     -0.002516130000000
C       6.305058500000000      3.620995600000000      0.655991840000000
Si      6.184448510000000      3.653789270000000      2.419767350000000
C       7.851458900000000      4.511925550000000      3.227087730000000
Si      6.287417500000000      5.320174040000000     -0.175290130000000
C       7.811470780000000      6.055293940000000      0.571760250000000
Si      7.657128790000000      6.243736200000000      2.538413070000000
C       9.130219620000000      7.125934090000000      3.189051870000000
Si      6.041017170000000      0.132479860000000      0.002099870000000
C       7.739755600000000      0.839007210000000      0.633594530000000
Si      7.651804940000000      0.977224280000000      2.465831150000000
C       9.233245390000000      1.961241760000000      3.298928280000000
Si      7.776696720000000      2.722112350000000      0.163606660000000
C       9.443696330000000      3.451368110000000      0.793402220000000
Si      9.278430990000000      3.595824960000000      2.810762290000000
C      11.012118660000001      4.569478130000000      3.359783160000000
Si      9.381871439999999      5.305264980000000      0.191408090000000
C      10.773385270000000      6.339042240000000      0.684938410000000
Si     10.774685260000000      6.270783040000000      2.608715550000000
C      12.467813830000001      7.148753510000000      3.363897300000000
36

Si     -0.028613070000000      0.011909090000000     -0.102779980000000
C       1.604873380000000      0.964423700000000      0.671281590000000
Si      1.427530880000000      0.761076430000000      2.509944360000000
C       3.024631470000000      1.783002770000000      3.148703280000000
Si      1.538376370000000      2.654591060000000      0.039283850000000
C       3.143080500000000      3.538860760000000      0.725387830000000
Si      2.988293480000000      3.589419990000000      2.451439210000000
C       4.545602530000000      4.417793510000000      3.232241790000000
Si      3.074950370000000      5.373738910000000      0.015571380000000
C       4.685970440000000      6.130010080000000      0.650266640000000
Si      4.822482790000000      6.082811670000000      2.545970300000000
C       6.339985070000000      7.108544480000000      3.276711240000000
Si      3.099671170000000      0.106347290000000     -0.154313140000000
C       4.726053500000000      0.769802690000000      0.580351710000000
Si      4.715139990000000      1.021672220000000      2.408769310000000
C       6.213642270000000      2.005249140000000      3.111504480000000
Si      4.695964020000000      2.711355180000000      0.121865080000000
C       6.247442270000000      3.593237390000000      0.698996670000000
Si      6.097234020000000      3.692763510000000      2.550815150000000
C       7.652332360000000      4.708185050000000      3.265168290000000
Si      6.165174570000000      5.295322060000000     -0.056214760000000
C       7.691902980000000      6.359698110000000      0.653379270000000
Si      7.871077240000000      6.308123090000000      2.539269130000000
C       9.390515900000000      7.147671590000000      3.137930170000000
Si      6.214407190000000     -0.122366420000000     -0.002290080000000
C       7.627016280000000      0.929228560000000      0.651976160000000
Si      7.650810950000000      0.833237520000000      2.552269820000000
C       8.926891950000000      1.840013880000000      3.178175530000000
Si      7.821467880000000      2.760672000000000      0.168143120000000
C       9.435662069999999      3.645806350000000      0.696136360000000
Si      9.248817969999999      3.577188320000000      2.645278110000000
C      10.758041420000000      4.444033410000000      3.354057480000000
Si      9.315380820000000      5.275756330000000     -0.054672450000000
C      10.855421630000000      6.219965400000000      0.743815160000000
Si     10.921333230000000      6.278510870000000      2.573874720000000
C      12.450437490000001      7.121993770000000      3.200599310000000
36

Si      0.037840120000000     -0.056075640000000     -0.120198380000000
C       1.679420400000000      0.892047350000000      0.561147360000000
Si      1.511936960000000      0.893935630000000      2.372215470000000
C       2.985193550000000      1.917799560000000      3.121829750000000
Si      1.620090350000000      2.723156830000000      0.030754830000000
C       3.212376540000000      3.625457680000000      0.615951010000000
Si      3.092222850000000      3.706140970000000      2.535570450000000
C       4.746150410000000      4.271124390000000      3.201354080000000
Si      3.083917190000000      5.296020540000000      0.025928070000000
C       4.531095810000000      6.239670190000000      0.588533860000000
Si      4.710738050000000      6.278939900000000      2.618059180000000
C       6.278872670000000      7.119975760000000      3.190714780000000
Si      3.095790230000000      0.003284440000000     -0.071598250000000
C       4.564136950000000      0.791243240000000      0.543579910000000
Si      4.429714090000000      1.009054640000000      2.504066600000000
C       6.111777130000000      1.719944590000000      3.010302270000000
Si      4.610374840000000      2.632982470000000      0.065970200000000
C       6.296849680000000      3.675745130000000      0.786345230000000
Si      6.244446360000000      3.546047390000000      2.636549090000000
C       7.733645420000000      4.601660230000000      3.333811950000000
Si      6.118091450000000      5.446844220000000     -0.033425410000000
C       7.679946490000000      6.163983050000000      0.421977110000000
Si      7.737119510000000      6.312887170000000      2.452895510000000
C       9.125750210000000      7.392167070000000      2.930137900000000
Si      6.296441830000000     -0.086870550000000     -0.057522480000000
C       7.764313590000000      0.754589040000000      0.595985410000000
Si      7.749441800000000      0.858599000000000      2.598526940000000
C       9.263973090000000      1.686145430000000      3.059783440000000
Si      7.880408840000000      2.646713910000000      0.248745980000000
C       9.386815779999999      3.522435890000000      0.797775210000000
Si      9.416628420000000      3.663763400000000      2.732835380000000
C      10.982082040000000      4.619025770000000      3.348632480000000
Si      9.216643350000000      5.162205940000000      0.052385210000000
C      10.709549920000001      6.245817000000000      0.548208040000000
Si     10.697342230000000      6.347416470000000      2.601848260000000
C      12.478730310000000      7.084353490000000      3.288519580000000
36

Si      0.038940650000000      0.054459420000000     -0.037458640000000
C       1.617451050000000      0.953816890000000      0.679868040000000
Si      1.496528100000000      0.889475120000000      2.478612210000000
C       2.980922700000000      1.831228040000000      3.067029790000000
Si      1.637102700000000      2.639772470000000     -0.074506660000000
C       3.134944250000000      3.526356830000000      0.580757670000000
Si      2.968345640000000      3.575406690000000      2.511937370000000
C       4.514327660000000      4.418233040000000      3.156674140000000
Si      3.082044560000000      5.358192250000000     -0.094095900000000
C       4.628173760000000      6.254436160000000      0.674286900000000
Si      4.592821430000000      6.190551240000000      2.558897350000000
C       6.151569510000000      7.152269220000000      3.136908230000000
Si      3.132201360000000      0.033963050000000     -0.044844220000000
C       4.646978920000000      0.955442370000000      0.646279080000000
Si      4.632208850000000      0.834542580000000      2.518941640000000
C       6.176871140000000      1.818777690000000      3.165352590000000
Si      4.675676180000000      2.682791370000000      0.077333650000000
C       6.218809090000000      3.574741800000000      0.725934330000000
Si      6.272116200000000      3.606178130000000      2.629066310000000
C       7.812281600000000      4.482268480000000      3.284669070000000
Si      6.185233510000000      5.356068480000000      0.054240150000000
C       7.709864550000000      6.222491490000000      0.665346550000000
Si      7.767634500000000      6.170970850000000      2.535105120000000
C       9.252425320000000      7.170396120000000      3.253813970000000
Si      6.184409810000000      0.045859080000000     -0.038154150000000
C       7.735463940000000      0.967114470000000      0.544234130000000
Si      7.713210540000000      0.866535190000000      2.519201310000000
C       9.180455690000001      1.683844880000000      3.202998890000000
Si      7.745533940000000      2.689134160000000      0.039397380000000
C       9.332265540000000      3.583824220000000      0.698615170000000
Si      9.306244789999999      3.520286560000000      2.522280950000000
C      10.741288380000000      4.537975450000000      3.202448050000000
Si      9.376118240000000      5.425384780000000      0.096822920000000
C      10.978111760000001      6.331291550000000      0.753461200000000
Si     10.897177500000000      6.311188190000000      2.637638460000000
C      12.357532780000000      7.172681700000000      3.214868480000000
36

Si     -0.066654380000000     -0.076239770000000      0.017628910000000
C       1.454805650000000      0.841004550000000      0.689513620000000
Si      1.519836260000000      0.894639600000000      2.570405770000000
C       3.109674700000000      1.707186810000000      3.272247940000000
Si      1.481636800000000      2.673783840000000      0.003082740000000
C       3.108507030000000      3.522150810000000      0.667245140000000
Si      3.105027660000000      3.460049740000000      2.569209460000000
C       4.692415370000000      4.539970150000000      3.098145350000000
Si      3.134538730000000      5.400762060000000      0.089246910000000
C       4.779154140000000      6.239775580000000      0.674531750000000
Si      4.721063450000000      6.309556050000000      2.540161510000000
C       6.289274820000000      7.179794640000000      3.271070250000000
Si      2.986655380000000      0.007017050000000      0.011833640000000
C       4.563993700000000      0.959315190000000      0.644717150000000
Si      4.652784680000000      0.877411420000000      2.509059570000000
C       6.223925320000000      1.794904840000000      3.206852190000000
Si      4.635157440000000      2.780516550000000     -0.111996910000000
C       6.187419110000000      3.583914130000000      0.599462270000000
Si      6.196710510000000      3.578157700000000      2.538159520000000
C       7.756997140000000      4.534928440000000      3.100743820000000
Si      6.333381840000000      5.406049780000000     -0.018659320000000
C       7.775209180000000      6.324175830000000      0.624972320000000
Si      7.760011690000000      6.278516920000000      2.506585810000000
C       9.374153610000000      7.174975130000000      3.191759580000000
Si      6.106631470000000     -0.000386670000000      0.017182340000000
C       7.717729780000000      0.802544160000000      0.703817700000000
Si      7.685128260000000      0.924690310000000      2.616256100000000
C       9.335850270000000      1.834842420000000      3.118218710000000
Si      7.728842690000000      2.670704500000000      0.057646140000000
C       9.280634160000000      3.597020720000000      0.629735430000000
Si      9.275669349999999      3.535457040000000      2.492066560000000
C      10.873116220000000      4.408128960000000      3.181797010000000
Si      9.314856369999999      5.392367420000000     -0.065249180000000
C      10.825895480000000      6.219962380000000      0.674260980000000
Si     10.865922950000000      6.213678200000000      2.601756250000000
C      12.443785880000000      7.194948970000000      3.178278260000000
36

Si     -0.329375020000000      0.178004860000000     -0.203590140000000
C       1.362657090000000      0.682773200000000      0.567287160000000
Si      1.305233140000000      0.922240980000000      2.355322150000000
C       2.787292700000000      1.816583970000000      3.109149340000000
Si      1.516737950000000      2.502269280000000      0.086064860000000
C       2.947470810000000      3.526250570000000      0.591901710000000
Si      3.295795340000000      3.620460170000000      2.448117510000000
C       4.835701170000000      4.427852070000000      3.198882980000000
Si      3.130308920000000      5.295885300000000      0.024910240000000
C       4.759891160000000      6.229747230000000      0.526248230000000
Si      4.694633240000000      6.202147940000000      2.487339180000000
C       6.422923100000000      7.360130060000000      3.099703440000000
Si      3.143273280000000     -0.057480460000000     -0.138215070000000
C       4.384056760000000      0.982998230000000      0.537257590000000
Si      4.453917750000000      0.801435230000000      2.380989040000000
C       6.152877050000000      1.784633420000000      3.179359190000000
Si      4.568170360000000      2.616724340000000      0.060212270000000
C       6.181611230000000      3.678651280000000      0.703475080000000
Si      6.476053350000000      3.878614580000000      2.556688190000000
C       8.019426770000001      4.637568370000000      3.401133760000000
Si      6.203992630000000      5.409417290000000      0.164516860000000
C       7.893912190000000      6.278389490000000      0.780383720000000
Si      7.816886440000000      6.595833680000000      2.601617250000000
C       9.477289030000000      7.159480530000000      3.013877850000000
Si      5.992112900000000     -0.179493310000000      0.283072340000000
C       7.528541040000000      0.737739140000000      0.533013680000000
Si      7.644208460000000      0.670264330000000      2.507464230000000
C       9.155139830000000      1.760513610000000      3.130498140000000
Si      7.796241190000000      2.775819710000000      0.047560460000000
C       9.305001669999999      3.577831900000000      0.695303550000000
Si      9.502873050000000      3.445169600000000      2.703563190000000
C      11.123578600000000      4.554374300000000      3.253166880000000
Si      9.332531290000000      5.430424580000000      0.103852570000000
C      10.938006390000000      6.270605290000000      0.726691920000000
Si     10.879452860000001      6.169326820000000      2.567912020000000
C      12.550261490000000      7.109557650000000      3.262522110000000
36

Si      0.172268140000000     -0.172062930000000      0.196378630000000
C       1.527855800000000      0.985186730000000      0.651370360000000
Si      1.510531950000000      0.875290990000000      2.706947230000000
C       3.108650860000000      1.884056180000000      3.250926380000000
Si      1.634724190000000      2.754978720000000      0.003283490000000
C       3.305709860000000      3.732738900000000      0.733471660000000
Si      3.276209560000000      3.567369510000000      2.486493390000000
C       4.742339070000000      4.407721880000000      3.236131710000000
Si      3.180739830000000      5.492640630000000      0.020328750000000
C       4.665934680000000      6.188755740000000      0.877351390000000
Si      4.526083410000000      6.227658830000000      2.766278160000000
C       6.207020970000000      7.194362070000000      3.343878210000000
Si      2.847373810000000     -0.063326230000000     -0.150265900000000
C       4.644653770000000      0.692360280000000      0.479401330000000
Si      4.595921060000000      1.268208230000000      2.446913250000000
C       6.092290330000000      1.972219660000000      2.906156340000000
Si      4.750571150000000      2.854519490000000     -0.116046300000000
C       6.379404840000000      3.550530160000000      0.302958320000000
Si      6.414179950000000      3.642264120000000      2.372087780000000
C       7.882798420000000      4.586971020000000      3.002902490000000
Si      6.217154830000000      5.416869380000000      0.106977950000000
C       7.706250970000000      6.188711540000000      0.634053560000000
Si      7.880377320000000      6.318272560000000      2.556189230000000
C       9.058145320000000      7.549701710000000      3.341064040000000
Si      6.019174970000000     -0.092857860000000     -0.246080360000000
C       7.815674670000000      0.825030180000000      0.445951130000000
Si      7.470117530000000      0.885811380000000      2.594030590000000
C       9.108327820000000      1.694729650000000      3.199925790000000
Si      7.771101220000000      2.384432650000000     -0.039063430000000
C       9.372910500000000      3.352310640000000      0.678077700000000
Si      9.249949590000000      3.621966450000000      2.518778360000000
C      10.818994249999999      4.337541310000000      3.168054750000000
Si      9.402040599999999      5.088464090000000      0.050823880000000
C      10.730696310000001      6.083794230000000      0.839992480000000
Si     10.699925049999999      6.354613500000000      2.768748240000000
C      12.201079950000000      7.002774230000000      3.205548330000000
36

Si     -0.185498250000000     -0.090245770000000     -0.278632330000000
C       1.282881120000000      0.736983770000000      0.243884300000000
Si      1.200666350000000      0.814673220000000      2.298565840000000
C       2.949006180000000      1.893272900000000      2.955656810000000
Si      1.504867720000000      2.499188620000000     -0.054161770000000
C       3.085917230000000      3.613598900000000      0.481706940000000
Si      3.204659710000000      3.722246690000000      2.454874250000000
C       4.923322300000000      4.517718100000000      3.077763270000000
Si      2.971021090000000      5.462797480000000      0.038427160000000
C       4.520115250000000      6.157731400000000      0.493544790000000
Si      4.858283620000000      6.273288180000000      2.555513300000000
C       6.101255810000000      7.272036030000000      3.243451820000000
Si      3.089284190000000     -0.002094850000000      0.125773170000000
C       4.488149910000000      1.031462820000000      0.553471140000000
Si      4.524704740000000      1.051489610000000      2.384299750000000
C       6.058340890000000      1.812947360000000      3.149878420000000
Si      4.630699480000000      2.734744150000000      0.013522630000000
C       6.401847330000000      3.441863220000000      0.869655560000000
Si      6.432406230000000      3.649075210000000      2.709006350000000
C       7.965399330000000      4.552364180000000      3.372464950000000
Si      6.276077310000000      5.315458810000000     -0.004666640000000
C       7.703860940000000      6.255139970000000      0.829190900000000
Si      7.696608520000000      6.413930020000000      2.630317970000000
C       9.555656089999999      7.336438160000000      3.076689900000000
Si      5.980117800000000     -0.057127700000000      0.193262220000000
C       7.651225890000000      0.700737720000000      0.716037860000000
Si      7.669281940000000      0.727296540000000      2.522051070000000
C       9.261378390000001      1.803878440000000      3.116702480000000
Si      7.900645040000000      2.609210050000000      0.025661430000000
C       9.314156360000000      3.424972520000000      0.713245970000000
Si      9.547167900000000      3.496639670000000      2.666363570000000
C      11.021024929999999      4.386176810000000      3.201200150000000
Si      9.349968570000000      5.565571300000000      0.071943250000000
C      10.836852620000000      6.380325440000000      0.742566970000000
Si     10.872252919999999      6.164256620000000      2.772698190000000
C      12.471023799999999      7.086557080000000      3.268323370000000
36

Si     -0.188322400000000     -0.145554860000000     -0.185578050000000
C       1.388695280000000      0.818093150000000      0.502486310000000
Si      1.479357270000000      0.728443260000000      2.410333450000000
C       3.044120810000000      1.711495470000000      3.060816970000000
Si      1.424871910000000      2.806862340000000     -0.009596640000000
C       3.239411540000000      3.551780750000000      0.690530200000000
Si      3.149662710000000      3.693133540000000      2.533853210000000
C       4.676394570000000      4.534163800000000      3.071444970000000
Si      3.173372970000000      5.288264100000000      0.083983140000000
C       4.584055360000000      6.324200550000000      0.623732240000000
Si      4.509395850000000      6.313169190000000      2.502315050000000
C       6.106820430000000      7.247203500000000      3.221555830000000
Si      3.016990750000000      0.011942980000000      0.005221650000000
C       4.449614470000000      0.818338500000000      0.456574590000000
Si      4.642681040000000      0.853965000000000      2.481312150000000
C       6.437736650000000      1.800746400000000      3.134314050000000
Si      4.793605250000000      2.581614290000000      0.028123560000000
C       6.305314630000000      3.588922550000000      0.522180520000000
Si      6.329327660000000      3.680428350000000      2.512751010000000
C       7.665571330000000      4.543756450000000      3.317927510000000
Si      6.174138770000000      5.364372180000000     -0.068975900000000
C       7.607164730000000      6.265290310000000      0.611573410000000
Si      7.637259640000000      6.251120880000000      2.536330160000000
C       9.255454459999999      7.068535090000000      3.018363550000000
Si      6.140386770000000      0.019037900000000      0.085721890000000
C       7.644399440000000      0.888532900000000      0.533222060000000
Si      7.811329450000000      0.839152060000000      2.564174430000000
C       9.433272810000000      1.668339230000000      3.241865680000000
Si      7.974792610000000      2.650243450000000      0.142976970000000
C       9.425698300000001      3.769291770000000      0.845831620000000
Si      9.365232260000001      3.672291330000000      2.696796670000000
C      10.825613340000000      4.539281220000000      3.390179950000000
Si      9.375011470000000      5.444252800000000      0.187856480000000
C      10.856220790000000      6.266190610000000      0.698414840000000
Si     10.828366689999999      6.244154450000000      2.593754930000000
C      12.378712810000000      7.125153220000000      3.219290450000000
36

Si      0.150027820000000     -0.001540370000000     -0.058109020000000
C       1.540313780000000      0.969924590000000      0.600749270000000
Si      1.518233290000000      1.012226780000000      2.535533770000000
C       3.155280610000000      1.819206750000000      3.155782300000000
Si      1.602379310000000      2.782370640000000      0.027283130000000
C       3.140452400000000      3.536385470000000      0.668378200000000
Si      3.104141350000000      3.535396180000000      2.535015330000000
C       4.570630520000000      4.485548640000000      3.103664780000000
Si      3.095982600000000      5.290360190000000     -0.028997170000000
C       4.565414620000000      6.260491030000000      0.583222930000000
Si      4.532668470000000      6.217115300000000      2.483588480000000
C       6.142605320000000      7.167522150000000      3.102510320000000
Si      3.170000290000000      0.058310340000000      0.005875320000000
C       4.701009240000000      0.880879090000000      0.691525980000000
Si      4.657049170000000      0.848099600000000      2.527301070000000
C       6.255139490000000      1.701076650000000      3.146774000000000
Si      4.713373750000000      2.686712500000000      0.031965240000000
C       6.123034030000000      3.493905360000000      0.730855810000000
Si      6.118629100000000      3.559834370000000      2.603084110000000
C       7.726302980000000      4.487838900000000      3.223669590000000
Si      6.095909260000000      5.294942470000000      0.086361810000000
C       7.700086250000000      6.287658310000000      0.629183470000000
Si      7.623075420000000      6.247866760000000      2.593156690000000
C       9.294469579999999      7.122195230000000      3.246613080000000
Si      6.308577800000000      0.000302400000000      0.018054800000000
C       7.848008650000000      0.804435940000000      0.643745970000000
Si      7.768371190000000      0.835807020000000      2.539066230000000
C       9.272353349999999      1.928705460000000      3.049593760000000
Si      7.756316810000000      2.693250940000000      0.097418630000000
C       9.327738320000000      3.656261990000000      0.621203860000000
Si      9.311549720000000      3.638890780000000      2.470247600000000
C      10.827942009999999      4.453365850000000      3.199516920000000
Si      9.305704600000000      5.404024690000000      0.016677670000000
C      10.789540210000000      6.207775620000000      0.623585990000000
Si     10.808428299999999      6.234105020000000      2.603387900000000
C      12.337034600000001      7.169841100000000      3.173499750000000
36

Si     -0.069742810000000      0.010509200000000     -0.212804460000000
C       1.425329980000000      0.973203290000000      0.611294500000000
Si      1.496560060000000      0.833390940000000      2.482147310000000
C       3.123595480000000      1.827008330000000      3.020186520000000
Si      1.339643800000000      2.865476240000000      0.086574000000000
C       2.845322630000000      3.699088580000000      0.539406450000000
Si      3.022957580000000      3.733898290000000      2.639371210000000
C       4.480190520000000      4.383243510000000      3.227046200000000
Si      3.102409710000000      5.493168150000000     -0.303549920000000
C       4.579241040000000      6.295985070000000      0.458822020000000
Si      4.460306740000000      6.005775950000000      2.377298930000000
C       6.347597670000000      7.152060690000000      2.838189000000000
Si      2.972455530000000     -0.101944430000000     -0.102509430000000
C       4.821604690000000      0.886245710000000      0.705538490000000
Si      4.751583540000000      0.876916810000000      2.768284550000000
C       6.266966150000000      1.791456220000000      3.078224590000000
Si      4.514716010000000      2.528163680000000      0.127568330000000
C       6.026540050000000      3.571499220000000      0.741054840000000
Si      6.317225020000000      3.764281410000000      2.708788050000000
C       7.841007590000000      4.498178940000000      3.501572130000000
Si      6.128719130000000      5.213049970000000     -0.170760750000000
C       7.921864400000000      6.146754790000000      0.519540460000000
Si      7.800929890000000      6.126456280000000      2.376558740000000
C       9.435085270000000      7.208966060000000      3.284490070000000
Si      6.481214090000000      0.176646750000000      0.049846570000000
C       7.804463740000000      1.016031410000000      0.879493250000000
Si      7.914007750000000      0.849261970000000      2.628069500000000
C       9.454292810000000      1.648698570000000      3.436127440000000
Si      7.508213340000000      2.680571680000000      0.132889310000000
C       9.126256580000000      3.584618840000000      0.788233480000000
Si      9.304228080000000      3.631627850000000      2.716804500000000
C      10.776122669999999      4.585179640000000      3.355083640000000
Si      9.473430300000000      5.323269120000000      0.097766430000000
C      10.992085189999999      6.211833840000000      0.516695250000000
Si     10.940739590000000      6.242879220000000      2.465824980000000
C      12.472605769999999      7.150965770000000      3.204569410000000
36

Si      0.045490050000000      0.019131290000000      0.069617230000000
C       1.641073160000000      1.019057840000000      0.701922470000000
Si      1.615252100000000      1.005616450000000      2.619131020000000
C       3.158681360000000      1.758023260000000      3.244002700000000
Si      1.518951520000000      2.799883070000000      0.017113770000000
C       3.113539050000000      3.519577530000000      0.579104420000000
Si      3.099434440000000      3.473973030000000      2.565910760000000
C       4.696861880000000      4.506954040000000      3.181548720000000
Si      3.000428990000000      5.348713260000000      0.054835300000000
C       4.679748030000000      6.163673940000000      0.627149560000000
Si      4.621943080000000      6.252083990000000      2.504129090000000
C       6.175726420000000      7.239245810000000      3.156896760000000
Si      3.184512990000000      0.075401300000000     -0.031270650000000
C       4.723588280000000      0.966474640000000      0.564156270000000
Si      4.644528210000000      0.819590930000000      2.492899120000000
C       6.291879350000000      1.718889190000000      3.163496780000000
Si      4.741600540000000      2.835240800000000      0.002677340000000
C       6.258787570000000      3.567200610000000      0.733971740000000
Si      6.238247150000000      3.433090140000000      2.592460080000000
C       7.686855080000000      4.392824520000000      3.155952460000000
Si      6.202663790000000      5.358717020000000     -0.013678760000000
C       7.679097660000000      6.296974790000000      0.493049680000000
Si      7.611715560000000      6.161830720000000      2.519101460000000
C       9.177078010000001      7.090491310000000      3.174459540000000
Si      6.216745080000000      0.015937220000000     -0.063685200000000
C       7.718800560000000      0.881165000000000      0.759684570000000
Si      7.774219380000000      0.925810190000000      2.610294890000000
C       9.358092879999999      1.751268560000000      3.177211310000000
Si      7.782236730000000      2.579286430000000      0.033310440000000
C       9.211331740000000      3.591401390000000      0.583643320000000
Si      9.214845520000001      3.653173760000000      2.456839470000000
C      10.840398190000000      4.420352040000000      3.225421070000000
Si      9.207679190000000      5.415829390000000      0.003601730000000
C      10.738025280000000      6.220570560000000      0.775966530000000
Si     10.840144430000000      6.258394950000000      2.562920750000000
C      12.354341079999999      7.109940550000000      3.108531990000000
36

Si     -0.049797310000000      0.000740900000000      0.047499590000000
C       1.556985520000000      0.905323440000000      0.534880640000000
Si      1.611964320000000      0.876752280000000      2.350543570000000
C       3.124213650000000      1.763859420000000      3.129731410000000
Si      1.583070020000000      2.623657400000000      0.005523460000000
C       3.031059830000000      3.651669740000000      0.579107260000000
Si      3.111410680000000      3.668537240000000      2.553754070000000
C       4.752485630000000      4.485303770000000      3.219560350000000
Si      2.951169330000000      5.424447810000000     -0.048041430000000
C       4.545099610000000      6.283904630000000      0.640446180000000
Si      4.620434630000000      6.226987720000000      2.565469550000000
C       6.226378920000000      7.132638200000000      3.159340840000000
Si      3.222464110000000     -0.019655920000000     -0.039376930000000
C       4.676627380000000      0.823834470000000      0.636415300000000
Si      4.620508670000000      0.899218970000000      2.571058970000000
C       6.267182390000000      1.832215880000000      3.161424160000000
Si      4.683343230000000      2.600232520000000     -0.048429090000000
C       6.181386620000000      3.580876180000000      0.753558720000000
Si      6.200764460000000      3.579286050000000      2.556635380000000
C       7.748943540000000      4.362203850000000      3.134166150000000
Si      6.096773990000000      5.334957550000000      0.116572430000000
C       7.696311060000000      6.277072820000000      0.621029390000000
Si      7.788427090000000      6.236930570000000      2.556327180000000
C       9.276669510000000      7.120087200000000      3.270059270000000
Si      6.240507060000000     -0.000435160000000      0.024421580000000
C       7.681683130000000      0.939589640000000      0.661380880000000
Si      7.780509360000000      0.954481510000000      2.538612840000000
C       9.411044850000000      1.867546840000000      3.249472860000000
Si      7.681304960000000      2.756883350000000      0.034533310000000
C       9.345318180000000      3.527225230000000      0.633855750000000
Si      9.381008189999999      3.551749100000000      2.623841200000000
C      10.859910010000000      4.519414990000000      3.260223940000000
Si      9.240914970000000      5.273065970000000     -0.030851840000000
C      10.667832560000001      6.263809430000000      0.679136580000000
Si     10.791417790000001      6.322144330000000      2.569096270000000
C      12.465162769999999      7.162133590000000      3.196999140000000
36

Si      0.074929940000000      0.113783520000000     -0.054351170000000
C       1.617950240000000      0.935658350000000      0.546052720000000
Si      1.501150050000000      0.817536310000000      2.356989850000000
C       2.999118360000000      1.650326850000000      3.049551590000000
Si      1.621564210000000      2.721565880000000      0.067062600000000
C       3.059421460000000      3.637236720000000      0.685175380000000
Si      3.217123700000000      3.500921060000000      2.501399520000000
C       4.590946360000000      4.530576970000000      3.201922570000000
Si      2.881047990000000      5.362858980000000     -0.064378570000000
C       4.574575600000000      6.218362710000000      0.442167160000000
Si      4.568162120000000      6.214771940000000      2.536261680000000
C       6.018602570000000      7.179699350000000      3.162829190000000
Si      3.015752780000000     -0.146646270000000     -0.232626660000000
C       4.676437950000000      0.816659860000000      0.649869480000000
Si      4.499333840000000      0.819419170000000      2.442217870000000
C       6.047835600000000      1.739779310000000      3.083398040000000
Si      4.672457430000000      2.831654140000000      0.017937020000000
C       6.214602460000000      3.702840370000000      0.767544710000000
Si      6.203949060000000      3.435088980000000      2.540046390000000
C       7.895353360000000      4.492818550000000      3.194917160000000
Si      5.991233280000000      5.498606380000000      0.038183440000000
C       7.792500550000000      6.435992650000000      0.726575810000000
Si      7.795626910000000      6.294725180000000      2.536486520000000
C       9.252902779999999      7.125014160000000      3.240562380000000
Si      6.224088740000000      0.024604740000000     -0.097345560000000
C       7.777029000000000      0.770807390000000      0.732437320000000
Si      7.701919390000000      0.934086630000000      2.625539980000000
C       9.290832580000000      1.800786550000000      3.270019800000000
Si      7.851687520000000      2.641478010000000      0.197933930000000
C       9.367748330000000      3.547350650000000      0.761401370000000
Si      9.500045500000001      3.592196000000000      2.677784310000000
C      10.998793220000000      4.319868200000000      3.219512510000000
Si      9.282485360000001      5.431035900000000      0.061134760000000
C      10.891666960000000      6.384440990000000      0.718440510000000
Si     10.961151579999999      6.168352630000000      2.690018490000000
C      12.430408090000000      7.336625450000000      3.318366930000000
36

Si     -0.056574400000000     -0.020082130000000      0.010631730000000
C       1.326919010000000      0.952520730000000      0.708718380000000
Si      1.475158220000000      0.955100570000000      2.707904090000000
C       3.171988940000000      1.547656600000000      3.139976700000000
Si      1.583822570000000      2.908793390000000      0.014646670000000
C       3.193228820000000      3.529731700000000      0.559628750000000
Si      3.403468680000000      3.375904660000000      2.308717320000000
C       4.680923880000000      4.449571620000000      3.163377420000000
Si      3.045658790000000      5.413282670000000      0.342033440000000
C       4.535649080000000      6.475232830000000      0.700993440000000
Si      4.700295220000000      6.209065020000000      2.637356360000000
C       6.088066460000000      7.188866860000000      3.393984780000000
Si      2.927279130000000     -0.150646620000000      0.030974130000000
C       4.463757090000000      0.990814160000000      0.485202860000000
Si      4.586941680000000      0.959381680000000      2.425238320000000
C       6.096215690000000      1.845845360000000      3.108640430000000
Si      4.715561550000000      2.687948230000000     -0.235899580000000
C       6.198764130000000      3.454372000000000      0.552460400000000
Si      6.415387360000000      3.461699300000000      2.404532010000000
C       7.920102990000000      4.628752200000000      3.132573030000000
Si      6.358684280000000      5.461002420000000      0.120028160000000
C       7.813533190000000      6.292884220000000      0.828987790000000
Si      7.751597080000000      6.698693000000000      2.711947950000000
C       9.486055920000000      7.366136370000000      3.363549380000000
Si      5.877027580000000     -0.186418830000000     -0.103446090000000
C       7.542764130000000      0.647818340000000      0.658069320000000
Si      7.770300430000000      0.844455640000000      2.366861630000000
C       9.205889129999999      1.865717940000000      2.978198520000000
Si      7.692823800000000      2.535921790000000      0.036050960000000
C       9.338877460000001      3.422167660000000      0.473719740000000
Si      9.505599569999999      3.508353440000000      2.417928730000000
C      11.039739780000000      4.283215320000000      3.125518240000000
Si      9.268880480000000      5.401017130000000      0.138450350000000
C      10.604584070000000      6.151603890000000      0.735680380000000
Si     10.699326100000000      6.317877970000000      2.672059560000000
C      12.421313950000000      7.238922730000000      3.273956400000000
36

Si      0.100306310000000      0.185044970000000      0.232894400000000
C       1.677183260000000      0.848487580000000      0.792501920000000
Si      1.608016490000000      0.902567300000000      2.675537520000000
C       3.144797120000000      1.906938700000000      3.430605830000000
Si      1.475030610000000      2.646511840000000     -0.210073400000000
C       2.904967300000000      3.694542360000000      0.473174640000000
Si      3.034383120000000      3.397981920000000      2.371341080000000
C       4.527840130000000      4.535768190000000      3.123574700000000
Si      3.125382520000000      5.518946230000000     -0.079951400000000
C       4.812152180000000      6.376078500000000      0.662384880000000
Si      4.555832560000000      6.336741650000000      2.556198040000000
C       6.152164890000000      7.207866860000000      3.219356030000000
Si      3.121683940000000     -0.058633400000000      0.121734650000000
C       4.481249160000000      0.923198440000000      0.689602180000000
Si      4.765715330000000      0.964403870000000      2.732161000000000
C       6.209015110000000      1.567400630000000      3.309732600000000
Si      4.689429450000000      2.718610850000000      0.001749360000000
C       6.176699980000000      3.593715920000000      0.618455750000000
Si      6.273761300000000      3.402620910000000      2.442976810000000
C       7.779697540000000      4.384993930000000      3.173223540000000
Si      6.171268430000000      5.332756300000000      0.002266760000000
C       7.789444890000000      6.143719670000000      0.678292220000000
Si      7.745628290000000      6.267329360000000      2.460884730000000
C       9.291789680000001      7.146968060000000      3.306801820000000
Si      6.075704660000000      0.098555880000000     -0.016407580000000
C       7.717391130000000      1.029517190000000      0.751182240000000
Si      7.840326690000000      0.830381040000000      2.455677990000000
C       9.345799080000001      1.790157370000000      3.266743300000000
Si      7.807886990000000      2.719255690000000     -0.035810090000000
C       9.309700030000000      3.559982390000000      0.675817320000000
Si      9.323270989999999      3.478566180000000      2.472056370000000
C      10.739358810000001      4.392151670000000      3.040012810000000
Si      9.292493980000000      5.278652600000000      0.073848810000000
C      10.930708810000000      6.398844650000000      0.724977830000000
Si     10.710690550000001      6.253849850000000      2.457162100000000
C      12.148763730000001      7.082180470000000      3.129043180000000
36

Si      0.220532420000000      0.150687330000000      0.017689590000000
C       1.636044730000000      0.880385840000000      0.852334780000000
Si      1.838337490000000      1.061171650000000      2.595935980000000
C       3.388692180000000      1.649514650000000      3.359797180000000
Si      1.410313710000000      2.686472090000000     -0.025037500000000
C       2.950710770000000      3.331122000000000      0.575755340000000
Si      2.934106090000000      3.469605260000000      2.457240350000000
C       4.514511790000000      4.504732520000000      3.193897670000000
Si      3.066446970000000      5.552721500000000     -0.085663550000000
C       4.669959420000000      6.100943650000000      0.508038030000000
Si      4.739977330000000      6.101233960000000      2.288201430000000
C       6.087003350000000      7.282100090000000      3.058077290000000
Si      3.087850730000000     -0.035137320000000      0.057857980000000
C       4.672291580000000      0.675943720000000      0.680448570000000
Si      4.866892700000000      0.833285040000000      2.403541720000000
C       6.175841270000000      1.724109470000000      3.277235850000000
Si      4.553584140000000      2.628688840000000      0.058147430000000
C       6.122889470000000      3.402551770000000      0.878452610000000
Si      5.973793990000000      3.483315290000000      2.727254350000000
C       7.645714350000000      4.707349460000000      3.189563800000000
Si      6.058259860000000      5.148491240000000      0.001369660000000
C       7.579789450000000      5.968495870000000      0.635168740000000
Si      7.696132980000000      6.251333340000000      2.520364290000000
C       9.164830139999999      7.091046270000000      3.224850930000000
Si      6.328477930000000      0.016765630000000      0.130635160000000
C       7.679790070000000      0.962650980000000      0.680912680000000
Si      8.009277680000000      0.951993710000000      2.690472620000000
C       9.602109140000000      1.939877460000000      3.275330010000000
Si      7.548327600000000      2.621912940000000      0.001149440000000
C       9.190255580000001      3.675624820000000      0.716126630000000
Si      9.269382670000001      3.733338110000000      2.509314990000000
C      10.906706339999999      4.478029420000000      3.138108520000000
Si      9.101979620000000      5.335924250000000     -0.212454430000000
C      11.027008589999999      6.351066930000000      0.636318100000000
Si     10.937327549999999      6.528985240000000      2.577441460000000
C      12.301844109999999      7.280233870000000      3.186904400000000
36

Si     -0.049102140000000     -0.007668480000000     -0.027603480000000
C       1.642173670000000      0.873642870000000      0.543999580000000
Si      1.594758250000000      0.955677110000000      2.436494030000000
C       3.116335310000000      1.855002050000000      3.110365900000000
Si      1.559482700000000      2.704034300000000     -0.064550250000000
C       3.050200080000000      3.567542790000000      0.613329210000000
Si      3.024401550000000      3.596704550000000      2.486918520000000
C       4.631786930000000      4.451111400000000      3.188579530000000
Si      3.047754500000000      5.372822480000000     -0.011174320000000
C       4.656224710000000      6.155093930000000      0.607960430000000
Si      4.581936050000000      6.273434870000000      2.524299540000000
C       6.095757920000000      7.229934010000000      3.103957270000000
Si      3.205344610000000     -0.031022320000000     -0.032872310000000
C       4.695221130000000      0.878179840000000      0.639465560000000
Si      4.680382390000000      0.882295990000000      2.565876810000000
C       6.234501970000000      1.722488450000000      3.236280970000000
Si      4.690857210000000      2.726488040000000      0.092534730000000
C       6.237177120000000      3.587558130000000      0.746503620000000
Si      6.227856500000000      3.565176450000000      2.593852600000000
C       7.841583340000000      4.357078350000000      3.232448970000000
Si      6.144680740000000      5.329781420000000      0.034035360000000
C       7.840457470000000      6.284924100000000      0.601677700000000
Si      7.668118550000000      6.124023810000000      2.553773040000000
C       9.218136310000000      7.131168620000000      3.298069160000000
Si      6.191424770000000     -0.010010810000000     -0.032028840000000
C       7.713595130000000      0.885002060000000      0.625936400000000
Si      7.741091540000000      0.888135990000000      2.512199490000000
C       9.319528419999999      1.774264480000000      3.110664810000000
Si      7.739566260000000      2.729865910000000      0.101882280000000
C       9.315326920000000      3.499327550000000      0.718942810000000
Si      9.338264020000000      3.537096150000000      2.537363280000000
C      10.844956260000000      4.638491190000000      3.246264920000000
Si      9.363041440000000      5.353278560000000      0.050517250000000
C      10.771222420000001      6.293997780000000      0.672777520000000
Si     10.767941609999999      6.356305420000000      2.641170380000000
C      12.379889660000000      7.228699970000000      3.187325260000000
36

Si      0.099228820000000     -0.001049920000000     -0.076603860000000
C       1.540563680000000      0.933446410000000      0.578901170000000
Si      1.376282480000000      0.826537540000000      2.469015280000000
C       2.978101860000000      1.752791700000000      3.147452010000000
Si      1.763759780000000      2.786759280000000      0.091495460000000
C       3.217060170000000      3.589629740000000      0.845704080000000
Si      3.106835080000000      3.739474110000000      2.706055890000000
C       4.861584750000000      4.484631950000000      3.026987210000000
Si      3.003103490000000      5.327626980000000     -0.090237890000000
C       4.501654170000000      6.334335050000000      0.625903940000000
Si      4.685817370000000      6.254364660000000      2.455369340000000
C       6.312382150000000      7.176442250000000      3.217167580000000
Si      3.183583150000000     -0.139282980000000     -0.081519390000000
C       4.732985520000000      0.925753380000000      0.641786890000000
Si      4.481158520000000      0.808770540000000      2.403260050000000
C       6.268744770000000      1.668549390000000      3.084073270000000
Si      4.698855000000000      2.756943930000000      0.091721620000000
C       6.317744950000000      3.519540300000000      0.699603420000000
Si      6.138939890000000      3.408787290000000      2.529799720000000
C       7.857643780000000      4.404230760000000      3.108034730000000
Si      6.080449320000000      5.314258740000000      0.019188860000000
C       7.587290170000000      6.298016210000000      0.699328890000000
Si      7.588423420000000      6.118142870000000      2.654043480000000
C       9.178335210000000      7.208777230000000      3.155474580000000
Si      6.264052070000000      0.067103920000000     -0.041673700000000
C       7.906221650000000      0.893608520000000      0.666252620000000
Si      7.836278970000000      0.878105260000000      2.602714660000000
C       9.301084610000000      1.716378090000000      3.256382960000000
Si      7.820118510000000      2.819040850000000     -0.013094690000000
C       9.391793229999999      3.692649280000000      0.777334230000000
Si      9.336169200000001      3.503229660000000      2.587012360000000
C      10.905647580000000      4.606451030000000      3.303197650000000
Si      9.237391819999999      5.400717240000000      0.073841260000000
C      10.722079310000000      6.269733730000000      0.673204950000000
Si     10.664755870000000      6.363854840000000      2.462879370000000
C      12.379978890000000      7.202853130000000      3.257001680000000
36

Si      0.006141640000000      0.111609780000000      0.034754090000000
C       1.642755770000000      0.886983720000000      0.686609970000000
Si      1.834883140000000      0.937950620000000      2.695146880000000
C       3.368213060000000      1.782697710000000      3.239502800000000
Si      1.589482510000000      2.613007420000000     -0.032616040000000
C       3.210747170000000      3.538522760000000      0.817758300000000
Si      3.065817310000000      3.520903800000000      2.619895390000000
C       4.491108900000000      4.551509830000000      3.260633250000000
Si      3.114972350000000      5.275764030000000      0.147801280000000
C       4.593475310000000      6.305764150000000      0.658340530000000
Si      4.685023320000000      6.324009110000000      2.636960600000000
C       6.099813390000000      7.264158390000000      3.409997580000000
Si      3.462372170000000      0.116849260000000      0.173991610000000
C       5.022602920000000      0.779254640000000      0.827067320000000
Si      4.719184820000000      0.736945950000000      2.680354550000000
C       6.259226810000000      1.791238070000000      3.018690540000000
Si      4.616049570000000      2.742382830000000     -0.146508960000000
C       6.175723350000000      3.573903710000000      0.470863110000000
Si      5.873303760000000      3.515703540000000      2.548287770000000
C       7.612867960000000      4.427133320000000      2.961756160000000
Si      6.166742230000000      5.285186390000000     -0.077666060000000
C       7.446633300000000      6.370039400000000      0.684603840000000
Si      7.385389710000000      6.216854970000000      2.553177880000000
C       8.922634250000000      7.030136340000000      3.096824920000000
Si      6.294743100000000      0.056978940000000      0.119269770000000
C       7.945452050000000      1.157189460000000      0.492565450000000
Si      7.903510980000000      0.842153860000000      2.635584990000000
C       9.406175400000000      1.761474040000000      3.462052520000000
Si      7.701275120000000      2.722099210000000     -0.037649540000000
C       9.308002390000000      3.632511050000000      0.433419150000000
Si      9.153820650000000      3.499654010000000      2.264746700000000
C      10.684522220000000      4.406211440000000      3.132217040000000
Si      9.107063460000001      5.578932850000000     -0.076798720000000
C      10.724513869999999      6.132061820000000      0.560576400000000
Si     10.983798280000000      6.265888880000000      2.332342270000000
C      12.348742170000000      6.984238440000000      3.017629350000000
36

Si      0.022420100000000      0.041473940000000     -0.109293780000000
C       1.535066440000000      0.920328380000000      0.575845130000000
Si      1.390614500000000      0.861494860000000      2.409970450000000
C       2.975858690000000      1.823201570000000      3.091025070000000
Si      1.611771310000000      2.700748940000000      0.014867900000000
C       3.165937090000000      3.524923800000000      0.609238560000000
Si      3.041717590000000      3.630026200000000      2.463248290000000
C       4.617070120000000      4.514529900000000      3.137814080000000
Si      3.124395890000000      5.321943590000000     -0.137178850000000
C       4.643685290000000      6.267327800000000      0.658678310000000
Si      4.602690250000000      6.211399200000000      2.569719420000000
C       6.266330150000000      7.101960670000000      3.108235690000000
Si      3.118727760000000      0.041949730000000     -0.037363490000000
C       4.677681710000000      0.872459590000000      0.716306760000000
Si      4.489713180000000      0.825358760000000      2.552784990000000
C       6.216194130000000      1.778322840000000      3.150546100000000
Si      4.703461390000000      2.652634980000000      0.130514460000000
C       6.226671320000000      3.528566810000000      0.722791390000000
Si      6.155835440000000      3.584314190000000      2.621134970000000
C       7.759642940000000      4.524833490000000      3.319611220000000
Si      6.181965340000000      5.359240820000000      0.100305290000000
C       7.738114680000000      6.264269620000000      0.713082060000000
Si      7.772509390000000      6.294288720000000      2.628098850000000
C       9.359435879999999      7.181340950000000      3.289933780000000
Si      6.259953880000000      0.004968100000000      0.004191050000000
C       7.822606490000000      0.856052430000000      0.591569840000000
Si      7.669875480000000      0.896235070000000      2.502433720000000
C       9.277324690000000      1.832005070000000      3.113783980000000
Si      7.772117370000000      2.695243940000000     -0.034895850000000
C       9.375554490000001      3.569920740000000      0.677342730000000
Si      9.265233840000000      3.586020910000000      2.570601920000000
C      10.842894039999999      4.484393070000000      3.147150710000000
Si      9.373086730000001      5.355463980000000      0.070583960000000
C      10.927297910000000      6.225468330000000      0.670992470000000
Si     10.855500220000000      6.271144340000000      2.614462290000000
C      12.425063270000001      7.172759320000000      3.257249590000000
36

Si      0.046814990000000     -0.006836800000000     -0.152471210000000
C       1.636899620000000      0.780982020000000      0.459577930000000
Si      1.394927160000000      0.761206000000000      2.310090640000000
C       3.000749300000000      1.832800520000000      2.978253150000000
Si      1.849801940000000      2.656583640000000     -0.082315660000000
C       3.215094720000000      3.517368820000000      0.542568670000000
Si      3.019504790000000      3.534630530000000      2.488113130000000
C       4.520922300000000      4.669507670000000      3.236808240000000
Si      3.167219740000000      5.291263510000000      0.065176590000000
C       4.656837840000000      6.376249200000000      0.477945070000000
Si      4.602602430000000      6.367413500000000      2.357063650000000
C       6.065521980000000      7.329348910000000      3.176735780000000
Si      3.065640990000000     -0.123274650000000     -0.048678550000000
C       4.515214330000000      0.839195950000000      0.407684940000000
Si      4.475992220000000      1.047231760000000      2.340722780000000
C       6.092580800000000      1.864469640000000      3.177277940000000
Si      4.844966200000000      2.774328670000000      0.099080220000000
C       6.259485620000000      3.317217430000000      0.711640150000000
Si      6.163512850000000      3.634433010000000      2.654045940000000
C       7.874752740000000      4.395953380000000      3.266519570000000
Si      6.287825570000000      5.300432190000000      0.000597420000000
C       7.647119600000000      6.191509240000000      0.547190080000000
Si      7.609025720000000      6.399698200000000      2.649430080000000
C       9.030395710000001      7.207786280000000      3.159025920000000
Si      5.969378590000000     -0.244954910000000      0.073126140000000
C       7.560286640000000      0.760259650000000      0.707402860000000
Si      7.619110720000000      1.025172320000000      2.667443910000000
C       9.309733880000000      1.693013390000000      2.999268720000000
Si      8.067372440000000      2.585722810000000      0.106636810000000
C       9.655262029999999      3.393805880000000      0.668240480000000
Si      9.370619760000000      3.685758160000000      2.650767830000000
C      10.805301829999999      4.505246420000000      3.252067150000000
Si      9.259060320000000      5.264937200000000      0.268003400000000
C      10.974555690000001      6.091575480000000      0.832418860000000
Si     10.893179229999999      6.514966350000000      2.737104740000000
C      12.341991289999999      7.361260460000000      3.366572500000000
36

Si     -0.011613890000000     -0.026700150000000     -0.024195620000000
C       1.478606920000000      0.819653490000000      0.596450910000000
Si      1.434544320000000      0.887249230000000      2.572379420000000
C       2.984981450000000      1.848034430000000      3.258441950000000
Si      1.584147560000000      2.697031460000000      0.067897740000000
C       3.169352260000000      3.649555780000000      0.655341840000000
Si      3.045173640000000      3.505111880000000      2.536017850000000
C       4.641669900000000      4.459743570000000      3.194183090000000
Si      3.200048630000000      5.360876300000000     -0.016346650000000
C       4.711555700000000      6.299323610000000      0.681633470000000
Si      4.657924010000000      6.311081540000000      2.668919450000000
C       6.203876160000000      7.148435090000000      3.196817600000000
Si      3.144832900000000      0.084477760000000     -0.036117050000000
C       4.605048360000000      0.939842640000000      0.685920600000000
Si      4.584309640000000      0.858512200000000      2.578666040000000
C       6.140665570000000      1.691295680000000      3.152356950000000
Si      4.639571800000000      2.704763270000000     -0.027348060000000
C       6.180132930000000      3.664074350000000      0.559631550000000
Si      6.197160070000000      3.493162260000000      2.428192530000000
C       7.716400640000000      4.489065370000000      3.182854090000000
Si      6.303444020000000      5.418862010000000      0.092621340000000
C       7.909032500000000      6.343193740000000      0.653759650000000
Si      7.874457140000000      6.222522150000000      2.469044700000000
C       9.327049530000000      7.143854840000000      3.223269810000000
Si      6.138249540000000      0.021035410000000      0.060589010000000
C       7.766826140000000      0.903083880000000      0.710053970000000
Si      7.738299460000000      0.884968180000000      2.526035890000000
C       9.214791829999999      1.840412610000000      3.241105570000000
Si      7.761147060000000      2.693046700000000      0.045880190000000
C       9.187897380000001      3.570292610000000      0.722343510000000
Si      9.182774889999999      3.585921540000000      2.538443110000000
C      10.817427240000001      4.437597610000000      3.135981980000000
Si      9.345465490000000      5.359946070000000     -0.026870770000000
C      10.848595899999999      6.236255420000000      0.588486780000000
Si     10.832730229999999      6.205829100000000      2.441201470000000
C      12.384805360000000      7.113870930000000      3.204167680000000
36

Si     -0.098689680000000     -0.107497810000000     -0.006781520000000
C       1.822703090000000      0.954481190000000      0.531332170000000
Si      1.696724200000000      0.836841730000000      2.425376350000000
C       2.900275160000000      1.913188330000000      3.050532700000000
Si      1.635086250000000      2.721975310000000      0.037968130000000
C       2.984783940000000      3.708745060000000      0.692730160000000
Si      2.829929210000000      3.611817840000000      2.590541640000000
C       4.381403190000000      4.393215860000000      3.251889370000000
Si      3.077898850000000      5.344831220000000     -0.289270020000000
C       4.703404430000000      6.182266660000000      0.425960880000000
Si      4.488011950000000      6.245718010000000      2.397805540000000
C       6.090210930000000      7.215138940000000      2.918067010000000
Si      3.374626520000000     -0.178598830000000      0.058513030000000
C       4.730128080000000      0.820067060000000      0.695630340000000
Si      4.442788290000000      0.825809450000000      2.596053660000000
C       6.194391130000000      1.514088820000000      3.092241430000000
Si      4.765192470000000      2.797108400000000      0.303038470000000
C       6.235871350000000      3.618672480000000      0.782304400000000
Si      5.939039160000000      3.474889000000000      2.705436310000000
C       7.669410530000000      4.370404120000000      3.183192520000000
Si      6.225377720000000      5.419024360000000     -0.142951470000000
C       7.730031190000000      6.277395100000000      0.475609350000000
Si      7.826449670000000      6.122720160000000      2.399293890000000
C       9.164906609999999      7.118494530000000      3.023142710000000
Si      6.306326590000000      0.009447950000000      0.158348740000000
C       7.951242950000000      0.996957750000000      0.656718960000000
Si      7.933044510000000      1.136491600000000      2.675839030000000
C       9.502135070000000      1.825887220000000      3.404229780000000
Si      7.733468850000000      2.725744470000000      0.254203890000000
C       9.232293750000000      3.612495900000000      0.821046490000000
Si      9.143875339999999      3.673266290000000      2.650428020000000
C      10.779278330000000      4.607327500000000      3.278753470000000
Si      9.332229170000000      5.340108300000000     -0.129978880000000
C      11.093589090000000      6.326484400000000      0.476847670000000
Si     10.908399240000000      6.253460400000000      2.536701530000000
C      12.339858760000000      7.176271630000000      3.121319740000000
36

Si      0.009261150000000     -0.104709110000000      0.002634170000000
C       1.419782170000000      1.061083170000000      0.576974070000000
Si      1.748609090000000      0.751411950000000      2.401366850000000
C       3.133184990000000      1.735235640000000      3.172825420000000
Si      1.495054570000000      2.962172480000000     -0.121560900000000
C       3.016391330000000      3.684244580000000      0.719888820000000
Si      3.027139530000000      3.451306550000000      2.490949900000000
C       4.394560820000000      4.476122660000000      3.108163140000000
Si      3.028770580000000      5.428937930000000     -0.219769760000000
C       4.637270850000000      6.009127120000000      0.454009150000000
Si      4.474256870000000      6.187097970000000      2.351250230000000
C       6.435048190000000      7.101743520000000      3.010814890000000
Si      3.043936270000000      0.059513730000000      0.359869570000000
C       4.880676590000000      0.976133900000000      0.727665990000000
Si      4.764971050000000      0.777254590000000      2.520981510000000
C       6.207165710000000      1.629382330000000      3.443052280000000
Si      4.728229830000000      2.687124600000000      0.172920240000000
C       6.222957810000000      3.535720430000000      0.822408200000000
Si      5.857303710000000      3.549038870000000      2.594421890000000
C       7.584260080000000      4.291901610000000      3.499996100000000
Si      6.073479740000000      5.340020070000000      0.139169230000000
C       7.698447300000000      6.065847460000000      0.613982090000000
Si      7.745860280000000      5.895257120000000      2.460718380000000
C       9.250046990000000      6.951827220000000      2.913675900000000
Si      6.321008860000000      0.156672430000000      0.011666560000000
C       7.937476410000000      0.941837610000000      0.597207070000000
Si      7.882105360000000      0.992614400000000      2.643792960000000
C       9.481700300000000      1.847316770000000      2.986758830000000
Si      7.683795410000000      2.720726500000000      0.179220180000000
C       9.320020650000000      3.738406960000000      0.641517050000000
Si      9.166693320000000      3.769524730000000      2.622137010000000
C      10.843854280000000      4.742319070000000      3.279697620000000
Si      9.363446410000000      5.422107980000000     -0.105894020000000
C      10.888298649999999      6.400359330000000      0.580556620000000
Si     10.967496690000001      6.314619650000000      2.536186890000000
C      12.571835320000000      7.191523450000000      3.154434460000000
36

Si      0.066980150000000      0.133270480000000      0.024564550000000
C       1.560840560000000      0.981602240000000      0.647073670000000
Si      1.535882030000000      0.884850910000000      2.559521400000000
C       3.148280550000000      1.768749410000000      3.169522880000000
Si      1.563460080000000      2.726934520000000      0.031127280000000
C       3.214051410000000      3.604950980000000      0.642652500000000
Si      3.145880150000000      3.533517690000000      2.597521560000000
C       4.656606590000000      4.334530190000000      3.183717850000000
Si      3.118547220000000      5.418558690000000      0.039360940000000
C       4.672041570000000      6.309309810000000      0.710824900000000
Si      4.524369880000000      6.206971460000000      2.577741290000000
C       6.140506320000000      7.156646640000000      3.206713240000000
Si      3.176766470000000      0.024354480000000      0.001059030000000
C       4.742282080000000      0.883060500000000      0.670858430000000
Si      4.732648660000000      0.912800630000000      2.516029520000000
C       6.233324840000000      1.854807890000000      3.196744600000000
Si      4.607132490000000      2.671047540000000     -0.019051190000000
C       6.259877990000000      3.484706950000000      0.524861400000000
Si      6.193590140000000      3.573247930000000      2.498771360000000
C       7.681921110000000      4.501496730000000      3.189528290000000
Si      6.113178640000000      5.336228070000000      0.005436990000000
C       7.664935030000000      6.190582880000000      0.656406160000000
Si      7.677690870000000      6.226264070000000      2.556992780000000
C       9.301760220000000      7.135352080000000      3.107981960000000
Si      6.247697660000000      0.159204800000000      0.056891350000000
C       7.856905550000000      0.974765750000000      0.563187160000000
Si      7.744548290000000      0.830047420000000      2.549425330000000
C       9.267227110000000      1.657459230000000      3.287427300000000
Si      7.787405810000000      2.713488680000000     -0.022631990000000
C       9.323902349999999      3.634382560000000      0.683101500000000
Si      9.271982879999999      3.558343140000000      2.609204060000000
C      10.804208300000001      4.409053820000000      3.175763140000000
Si      9.231258510000000      5.417511790000000     -0.005088070000000
C      10.865568619999999      6.220876070000000      0.617614100000000
Si     10.748885749999999      6.127580100000000      2.454656100000000
C      12.279738249999999      7.059096600000000      3.089591140000000
36

Si     -0.048012540000000     -0.025123150000000      0.043542410000000
C       1.516272090000000      0.856158810000000      0.671470200000000
Si      1.422051590000000      0.863536390000000      2.514512790000000
C       3.032819870000000      1.773898290000000      3.234465440000000
Si      1.262854720000000      2.618280780000000     -0.013582880000000
C       2.946616260000000      3.377605720000000      0.711484500000000
Si      2.895973830000000      3.535985670000000      2.496480590000000
C       4.532644340000000      4.472369050000000      3.131882900000000
Si      3.202903310000000      5.384077860000000     -0.033640130000000
C       4.739043380000000      6.165545830000000      0.645269320000000
Si      4.839742960000000      6.117957590000000      2.608833180000000
C       6.281136700000000      7.130642540000000      3.140709780000000
Si      3.216756720000000      0.121841270000000     -0.028212380000000
C       4.812004260000000      0.800207660000000      0.665773800000000
Si      4.683040550000000      0.949615760000000      2.546899250000000
C       6.242390100000000      1.908120880000000      3.157667180000000
Si      4.702604190000000      2.761623920000000      0.005083920000000
C       6.260030230000000      3.488430150000000      0.535806860000000
Si      6.153863070000000      3.601400470000000      2.469105980000000
C       7.787578920000000      4.665860350000000      3.124567720000000
Si      6.199346580000000      5.305301760000000      0.042495320000000
C       7.684271320000000      6.363314450000000      0.652135490000000
Si      7.880314730000000      6.383203310000000      2.493024020000000
C       9.424659080000000      7.106334420000000      3.085296380000000
Si      6.245660880000000     -0.075007260000000      0.130824480000000
C       7.700492050000000      0.887110030000000      0.678091410000000
Si      7.677925730000000      0.923690370000000      2.653469630000000
C       9.130867609999999      1.855095470000000      3.151907440000000
Si      7.673557240000000      2.676116640000000      0.083299350000000
C       9.190083580000000      3.558757640000000      0.709464500000000
Si      9.347126780000000      3.596989680000000      2.640611050000000
C      10.789543450000000      4.512969740000000      3.210490300000000
Si      9.251618720000000      5.301358080000000     -0.064580940000000
C      11.096226520000000      6.142869280000000      0.711787130000000
Si     10.940891870000000      6.379855500000000      2.436141870000000
C      12.366262640000000      7.174515110000000      3.122193640000000
36

Si     -0.082649710000000     -0.066924550000000     -0.174458260000000
C       1.595453070000000      0.709419110000000      0.489425380000000
Si      1.443600510000000      0.927120330000000      2.400846670000000
C       3.099073230000000      1.885778870000000      2.957194420000000
Si      1.632797970000000      2.732429240000000      0.069104010000000
C       3.152084470000000      3.757893920000000      0.628979530000000
Si      3.202514940000000      3.662513790000000      2.708976570000000
C       4.824577010000000      4.520771110000000      3.290970030000000
Si      2.909898090000000      5.354315580000000      0.037085310000000
C       4.636567500000000      6.183400340000000      0.625535360000000
Si      4.648318370000000      6.339878670000000      2.578087990000000
C       6.156251350000000      7.261291710000000      3.338712460000000
Si      3.157534340000000      0.044009800000000     -0.064509210000000
C       4.638236590000000      0.962438780000000      0.499691900000000
Si      4.519823200000000      0.793658800000000      2.474451980000000
C       6.014612060000000      1.611397910000000      2.991877730000000
Si      4.699078790000000      2.761986630000000     -0.063048920000000
C       6.083443400000000      3.634995940000000      0.776925380000000
Si      6.282568710000000      3.522833180000000      2.639156150000000
C       7.878983020000000      4.305348790000000      3.167362640000000
Si      6.135904330000000      5.257883270000000      0.016544660000000
C       7.719450950000000      6.051999630000000      0.669853510000000
Si      7.751501750000000      6.257669540000000      2.455652740000000
C       9.247212870000000      7.194837300000000      3.155308900000000
Si      6.231318370000000     -0.017463750000000      0.038530150000000
C       7.676048410000000      0.980932240000000      0.671157210000000
Si      7.781397510000000      0.880531210000000      2.485261540000000
C       9.501734050000000      1.818890980000000      3.278856690000000
Si      7.632888360000000      2.776657700000000      0.150979370000000
C       9.346579889999999      3.518643180000000      0.807330850000000
Si      9.438134320000000      3.602850640000000      2.631656880000000
C      10.894525150000000      4.669907170000000      3.236322760000000
Si      9.251413930000000      5.198059960000000      0.023255810000000
C      10.782610320000000      6.216449780000000      0.734380000000000
Si     10.867758439999999      6.336455790000000      2.543987500000000
C      12.389363970000000      7.086912670000000      3.190683730000000
36

Si     -0.016288900000000      0.055032560000000      0.075677120000000
C       1.527200590000000      0.943615700000000      0.769842140000000
Si      1.643215770000000      0.900572920000000      2.658526230000000
C       3.151648970000000      1.884403180000000      3.253183240000000
Si      1.535104520000000      2.648963630000000      0.101377820000000
C       3.072048550000000      3.557128410000000      0.654280610000000
Si      3.153874340000000      3.591460950000000      2.485464800000000
C       4.651538560000000      4.455631890000000      3.158142850000000
Si      3.197992300000000      5.293873070000000      0.024054040000000
C       4.722629950000000      6.284050190000000      0.774533560000000
Si      4.639995960000000      6.232096710000000      2.540961650000000
C       6.200265870000000      7.094152030000000      3.217161520000000
Si      3.129157120000000     -0.036175590000000     -0.011465240000000
C       4.619064750000000      0.878124710000000      0.654390960000000
Si      4.598158200000000      0.994478440000000      2.522169910000000
C       6.255694840000000      1.882567480000000      3.173761410000000
Si      4.606784800000000      2.738344070000000     -0.018825890000000
C       6.185167600000000      3.598327350000000      0.602991200000000
Si      6.163273880000000      3.625723670000000      2.496898940000000
C       7.673257360000000      4.453930950000000      3.182021630000000
Si      6.221676000000000      5.378922790000000     -0.032024140000000
C       7.706870960000000      6.191391220000000      0.638132120000000
Si      7.684737300000000      6.204123260000000      2.503615460000000
C       9.232113950000000      7.184764980000000      3.003646290000000
Si      6.115328180000000     -0.012127430000000      0.081982120000000
C       7.728028330000000      0.928898240000000      0.615955850000000
Si      7.741012040000000      0.882168010000000      2.459636040000000
C       9.271970059999999      1.735496930000000      3.206794170000000
Si      7.757993020000000      2.633429770000000     -0.118685700000000
C       9.341564990000000      3.575307090000000      0.582458770000000
Si      9.269026800000001      3.552045660000000      2.585151100000000
C      10.790168469999999      4.394599810000000      3.148199500000000
Si      9.346459100000001      5.361280290000000      0.053335370000000
C      10.848135740000000      6.245088120000000      0.670861890000000
Si     10.829011010000000      6.271109820000000      2.509279140000000
C      12.395888110000000      7.198743510000000      3.284724030000000
36

Si     -0.048080190000000     -0.000572880000000      0.057881260000000
C       1.491462140000000      0.882343550000000      0.626479670000000
Si      1.473645760000000      0.957860850000000      2.537046420000000
C       3.133516970000000      1.800945580000000      3.195797000000000
Si      1.494553500000000      2.651666120000000      0.038668310000000
C       3.055233110000000      3.578545980000000      0.697041530000000
Si      3.123946470000000      3.585956530000000      2.483993420000000
C       4.672261670000000      4.454151950000000      3.163331860000000
Si      3.142618540000000      5.352429590000000      0.108877710000000
C       4.659494300000000      6.225278310000000      0.677600260000000
Si      4.741499040000000      6.229506170000000      2.546468460000000
C       6.186748590000000      7.199081540000000      3.262085190000000
Si      3.029468660000000      0.000881270000000     -0.008329020000000
C       4.583529040000000      0.892744140000000      0.616720830000000
Si      4.729417560000000      0.954797120000000      2.478204970000000
C       6.186166360000000      1.842330980000000      3.171410050000000
Si      4.645450860000000      2.581343640000000      0.004987160000000
C       6.149758460000000      3.540940570000000      0.603394450000000
Si      6.219741920000000      3.613516170000000      2.510951610000000
C       7.767379250000000      4.583365400000000      3.215088410000000
Si      6.229605550000000      5.223338550000000     -0.045334390000000
C       7.752149610000000      6.232076050000000      0.675880680000000
Si      7.804239210000000      6.391082730000000      2.571177950000000
C       9.392814180000000      7.140887990000000      3.195933180000000
Si      6.190775340000000      0.012427860000000      0.020466290000000
C       7.694656220000000      0.870756500000000      0.682448270000000
Si      7.702883480000000      0.911943620000000      2.564333310000000
C       9.255655740000000      1.926203910000000      3.171847330000000
Si      7.716669900000000      2.658486930000000     -0.032966340000000
C       9.245346950000000      3.563505300000000      0.681578680000000
Si      9.275585749999999      3.585201790000000      2.601707830000000
C      10.802666920000000      4.445967040000000      3.184487390000000
Si      9.316757700000000      5.287515310000000     -0.038870380000000
C      10.828665830000000      6.275576710000000      0.538004470000000
Si     10.851170059999999      6.253849910000000      2.528254190000000
C      12.460947669999999      7.181386030000000      3.207657330000000
36

Si     -0.093072490000000     -0.054614130000000     -0.019797030000000
C       1.457062910000000      0.781355080000000      0.533608340000000
Si      1.521702940000000      0.864419980000000      2.453213950000000
C       2.948327930000000      1.840207810000000      3.144808670000000
Si      1.566160850000000      2.681080980000000     -0.028111930000000
C       3.111611260000000      3.611272590000000      0.655221370000000
Si      3.078301290000000      3.549914560000000      2.568100030000000
C       4.617238530000000      4.490841450000000      3.152565800000000
Si      3.109847140000000      5.352854440000000     -0.044244640000000
C       4.595234930000000      6.242104730000000      0.620084130000000
Si      4.747276310000000      6.271850980000000      2.598121050000000
C       6.229288100000000      7.155938810000000      3.155376430000000
Si      3.123963880000000     -0.061669220000000     -0.024277410000000
C       4.549562080000000      0.951099990000000      0.716038960000000
Si      4.550855500000000      0.951637480000000      2.619383470000000
C       6.088586190000000      1.753796060000000      3.160656960000000
Si      4.617901710000000      2.664546480000000     -0.028478220000000
C       6.133734710000000      3.654554730000000      0.656362970000000
Si      6.162174920000000      3.619472830000000      2.571642060000000
C       7.810325550000000      4.500890900000000      3.146671270000000
Si      6.222174780000000      5.438684450000000      0.097905460000000
C       7.810524040000000      6.301066990000000      0.683461460000000
Si      7.908759430000000      6.262744920000000      2.557172930000000
C       9.419075350000000      7.167156800000000      3.316349680000000
Si      6.177866200000000     -0.058574030000000     -0.016153940000000
C       7.715538200000000      0.840042260000000      0.714717380000000
Si      7.704474530000000      0.922997260000000      2.564036290000000
C       9.296770700000000      1.821900540000000      3.160387700000000
Si      7.742117660000000      2.662790370000000      0.077389530000000
C       9.198160670000000      3.507927430000000      0.695819430000000
Si      9.319619960000001      3.600105890000000      2.494241890000000
C      10.862180620000000      4.519881170000000      3.168364600000000
Si      9.331713049999999      5.364216530000000     -0.026283270000000
C      10.856029650000000      6.228157060000000      0.632000370000000
Si     10.908446570000001      6.274889880000000      2.557345010000000
C      12.478119080000001      7.136670650000000      3.152138430000000
36

Si      0.005749280000000     -0.002084120000000     -0.117192180000000
C       1.615406920000000      0.912679460000000      0.732759540000000
Si      1.425552790000000      0.798172120000000      2.457020710000000
C       3.000989800000000      1.811183140000000      3.197487500000000
Si      1.517523450000000      2.602362730000000      0.018558250000000
C       3.067191140000000      3.538772550000000      0.689353000000000
Si      3.008952070000000      3.589056400000000      2.437292510000000
C       4.566334470000000      4.296578130000000      3.233850630000000
Si      3.100366610000000      5.336538010000000      0.040114120000000
C       4.771917390000000      6.165462140000000      0.662383750000000
Si      4.824290070000000      6.118341830000000      2.615825720000000
C       6.256869110000000      7.090008240000000      3.238436140000000
Si      3.153408800000000      0.124944220000000     -0.123801020000000
C       4.646752480000000      0.807842290000000      0.567921170000000
Si      4.693881560000000      1.026283750000000      2.480421690000000
C       6.162253210000000      1.952288070000000      3.103967280000000
Si      4.629064910000000      2.720071820000000      0.047896460000000
C       6.341919010000000      3.616088700000000      0.709276860000000
Si      6.062777950000000      3.723068680000000      2.557494570000000
C       7.614091080000000      4.624042770000000      3.269984360000000
Si      6.202684220000000      5.366096380000000      0.001251680000000
C       7.683882810000000      6.236904920000000      0.628517480000000
Si      7.886240650000000      6.303458160000000      2.538316250000000
C       9.426421599999999      7.237850180000000      3.140796930000000
Si      6.209839640000000     -0.068661650000000      0.057809040000000
C       7.678705640000000      0.881302140000000      0.628855850000000
Si      7.635452510000000      0.846322080000000      2.577561260000000
C       8.963966530000000      1.853833160000000      3.177688630000000
Si      7.794615150000000      2.748388470000000      0.177338970000000
C       9.342994660000000      3.527471330000000      0.697119990000000
Si      9.240677890000001      3.577651390000000      2.639938950000000
C      10.805901400000000      4.467239130000000      3.315427930000000
Si      9.331488210000000      5.260123280000000     -0.110051400000000
C      10.806292050000000      6.205763470000000      0.523808340000000
Si     10.933111960000000      6.332791610000000      2.578887650000000
C      12.529785290000000      7.056069660000000      3.172697350000000
36

Si     -0.129161570000000     -0.123793140000000      0.056674070000000
C       1.503689110000000      0.867240250000000      0.503327490000000
Si      1.565172820000000      0.896275600000000      2.457411680000000
C       2.984339300000000      1.803335230000000      3.191989340000000
Si      1.819989030000000      2.537801530000000     -0.090004990000000
C       3.378909250000000      3.648901130000000      0.681530960000000
Si      3.114523660000000      3.533210450000000      2.751708370000000
C       4.760703250000000      4.482070890000000      3.077813710000000
Si      3.210590670000000      5.330540550000000      0.008111650000000
C       4.673453030000000      6.341317240000000      0.797802080000000
Si      4.586351580000000      6.393279320000000      2.806540390000000
C       6.322620640000000      7.178400010000000      3.311498560000000
Si      2.990273710000000      0.189914210000000      0.071692970000000
C       4.638045890000000      1.181437490000000      0.496562440000000
Si      4.490723230000000      0.891155870000000      2.345967850000000
C       5.885735240000000      1.863417640000000      3.098094450000000
Si      4.877264350000000      2.873749470000000      0.005083550000000
C       6.416515650000000      3.727187200000000      0.360223170000000
Si      6.232843440000000      3.541313600000000      2.401607930000000
C       7.819905540000000      4.306459280000000      3.258819350000000
Si      6.348608030000000      5.564061600000000      0.124687500000000
C       7.761480430000000      6.617888610000000      0.771167270000000
Si      7.839746100000000      6.246270620000000      2.505557040000000
C       9.226076450000001      7.171182070000000      3.242644440000000
Si      5.970868250000000     -0.146468390000000     -0.124860470000000
C       7.677672490000000      0.760793800000000      0.552456860000000
Si      7.223513590000000      0.862956010000000      2.420900080000000
C       9.072464289999999      1.548105560000000      3.081992170000000
Si      7.981669330000000      2.595959800000000     -0.119634020000000
C       9.454950190000000      3.613660220000000      0.461814810000000
Si      9.310108270000001      3.327862230000000      2.717244150000000
C      10.827062339999999      4.527739170000000      3.250718370000000
Si      9.306820510000000      5.440470620000000     -0.006915260000000
C      10.686672090000000      6.060918270000000      0.866015050000000
Si     10.806698709999999      6.171534920000000      2.826413510000000
C      12.446428790000001      7.228641760000000      3.022943480000000
36

Si      0.116986770000000      0.097879780000000      0.042213090000000
C       1.649623080000000      0.945187930000000      0.689475000000000
Si      1.585664130000000      0.902605220000000      2.574293020000000
C       3.147260830000000      1.867877280000000      3.121812630000000
Si      1.560565630000000      2.669037710000000     -0.014077380000000
C       3.126440020000000      3.666770540000000      0.633673230000000
Si      3.033078260000000      3.654666960000000      2.507978930000000
C       4.624896910000000      4.410620550000000      3.166313760000000
Si      2.980523290000000      5.382809050000000      0.007433940000000
C       4.566614830000000      6.300522030000000      0.680648740000000
Si      4.603200200000000      6.243222270000000      2.522588260000000
C       6.207875390000000      7.068391550000000      3.187873260000000
Si      3.235504140000000     -0.057730100000000      0.020395120000000
C       4.773275580000000      0.909213790000000      0.620370520000000
Si      4.705669020000000      0.948004740000000      2.518769770000000
C       6.265034650000000      1.806225790000000      3.165623930000000
Si      4.619144900000000      2.683445900000000     -0.002345560000000
C       6.135872970000000      3.534985300000000      0.688844840000000
Si      6.169293450000000      3.527919720000000      2.586416060000000
C       7.792614110000000      4.412873740000000      3.251881410000000
Si      6.124952260000000      5.298614560000000      0.042628400000000
C       7.673472770000000      6.151969570000000      0.618380420000000
Si      7.679461200000000      6.159123780000000      2.472192190000000
C       9.270971039999999      7.151285120000000      3.118028110000000
Si      6.237553600000000     -0.040668580000000     -0.068354280000000
C       7.839888480000000      0.957405400000000      0.682544800000000
Si      7.721484630000000      0.916779520000000      2.522943820000000
C       9.264979790000000      1.737658440000000      3.193884760000000
Si      7.794569370000000      2.692328400000000      0.091388390000000
C       9.417935770000000      3.606667870000000      0.658190630000000
Si      9.327834230000001      3.579391850000000      2.512710280000000
C      10.823671900000001      4.415187500000000      3.223177510000000
Si      9.195798020000000      5.404044340000000      0.007940560000000
C      10.773097119999999      6.290316780000000      0.636567760000000
Si     10.795134360000000      6.295634340000000      2.570820790000000
C      12.323933159999999      7.155351810000000      3.256580840000000
36

Si     -0.150881410000000      0.049173450000000      0.025764510000000
C       1.425503470000000      0.967225260000000      0.695601920000000
Si      1.595534060000000      0.911206320000000      2.611931350000000
C       3.146933610000000      1.806849570000000      3.173214080000000
Si      1.665013940000000      2.754945700000000     -0.079666860000000
C       3.148454830000000      3.632901090000000      0.675095420000000
Si      3.160565540000000      3.835580100000000      2.570350520000000
C       4.651586350000000      4.622264930000000      3.147581640000000
Si      3.183460320000000      5.539888690000000      0.090325060000000
C       4.899136190000000      6.231760910000000      0.623260560000000
Si      4.750041310000000      6.304806520000000      2.714081620000000
C       6.133741770000000      7.259841760000000      3.324083730000000
Si      3.059450800000000     -0.039257210000000      0.058366110000000
C       4.688884340000000      0.681036590000000      0.731264370000000
Si      4.649493840000000      0.831629670000000      2.504616870000000
C       6.294712150000000      1.764753620000000      3.277572430000000
Si      4.679218760000000      2.555945890000000     -0.017766350000000
C       6.229441800000000      3.528849750000000      0.628946090000000
Si      6.268262530000000      3.418536560000000      2.476853920000000
C       7.827460890000000      4.357784230000000      3.180276280000000
Si      6.125633030000000      5.251870560000000      0.008561810000000
C       7.715268910000000      6.285859810000000      0.798927160000000
Si      7.676133020000000      6.220054440000000      2.620186140000000
C       9.132190280000000      7.084582960000000      3.234472520000000
Si      6.146569280000000      0.026104330000000      0.005971930000000
C       7.660117820000000      0.925805610000000      0.675779940000000
Si      7.830538990000000      0.742018300000000      2.421573960000000
C       9.352127250000001      1.763519300000000      3.391886740000000
Si      7.795023070000000      2.807219160000000     -0.148967190000000
C       9.299828280000000      3.479299490000000      0.525171710000000
Si      9.226117220000001      3.486273020000000      2.454438470000000
C      10.649687000000000      4.456440650000000      2.960441200000000
Si      9.233919540000000      5.314593440000000     -0.017966280000000
C      10.928757900000001      6.348291470000000      0.618238240000000
Si     10.662506649999999      6.348312330000000      2.481483040000000
C      12.329515480000000      7.187254200000000      3.249593760000000
36

Si      0.070649340000000     -0.080076220000000      0.022733250000000
C       1.558170450000000      0.692753610000000      0.475544310000000
Si      1.458408060000000      0.956956720000000      2.519600640000000
C       2.989588970000000      1.780526700000000      3.059378340000000
Si      1.433217260000000      2.480839850000000      0.013789860000000
C       2.919981190000000      3.530780070000000      0.475083300000000
Si      3.007114020000000      3.543704590000000      2.558530230000000
C       4.539052640000000      4.419674680000000      3.196283490000000
Si      3.212412940000000      5.301676290000000      0.054472280000000
C       4.664738320000000      6.321009950000000      0.746137200000000
Si      4.722052670000000      6.220325060000000      2.677125780000000
C       6.313537380000000      7.195122840000000      3.127493920000000
Si      3.196870640000000     -0.024566810000000      0.055871290000000
C       4.633540450000000      1.173578840000000      0.771365230000000
Si      4.482365960000000      0.986802180000000      2.661986210000000
C       6.153354790000000      1.743761370000000      3.199311740000000
Si      4.509271360000000      2.746717110000000     -0.123156860000000
C       6.074220180000000      3.707184400000000      0.634500910000000
Si      6.173856790000000      3.645031930000000      2.516901170000000
C       7.761344950000000      4.368906000000000      3.103131580000000
Si      6.351352920000000      5.519199000000000      0.104991570000000
C       8.085105570000000      6.213448560000000      0.599662770000000
Si      7.851514740000000      6.303955140000000      2.501244210000000
C       9.372535709999999      7.308657120000000      3.244183060000000
Si      6.152184950000000      0.118840680000000      0.085140140000000
C       7.859464810000000      0.780441630000000      0.718126300000000
Si      7.688003780000000      0.897832050000000      2.564241600000000
C       9.478201439999999      1.791119620000000      3.270515250000000
Si      7.663723450000000      2.558936550000000      0.041064530000000
C       9.246290090000000      3.418391860000000      0.728340100000000
Si      9.240101480000000      3.614573290000000      2.587551890000000
C      10.842845790000000      4.609744620000000      3.100609910000000
Si      9.318203770000000      5.216658460000000     -0.110734420000000
C      10.882992160000001      6.250406930000000      0.373191780000000
Si     10.901703440000000      6.339360700000000      2.497828140000000
C      12.427382590000001      7.107187100000000      3.038544950000000
36

Si     -0.038652040000000     -0.080735600000000      0.101706930000000
C       1.498955800000000      0.885268750000000      0.680015340000000
Si      1.475314400000000      0.921899950000000      2.516170760000000
C       3.098412960000000      1.801474620000000      3.252257340000000
Si      1.311867730000000      2.682042400000000     -0.103530520000000
C       3.005611870000000      3.513934360000000      0.530529640000000
Si      3.100438180000000      3.535759200000000      2.476632280000000
C       4.574349630000000      4.293650870000000      3.059043670000000
Si      3.183826000000000      5.252682760000000      0.148756060000000
C       4.726511060000000      6.239573100000000      0.725445430000000
Si      4.670821530000000      6.251180370000000      2.596678240000000
C       6.224549130000000      7.105912300000000      3.101544760000000
Si      3.139030720000000      0.193647170000000      0.112171570000000
C       4.676922140000000      0.961873720000000      0.667779280000000
Si      4.733061630000000      0.801248590000000      2.650143380000000
C       6.149660780000000      1.898603820000000      3.144706620000000
Si      4.546450380000000      2.642292850000000     -0.145574730000000
C       6.138640140000000      3.704719580000000      0.664229300000000
Si      6.153676290000000      3.664293650000000      2.430581420000000
C       7.722835030000000      4.456768750000000      3.200269850000000
Si      6.371992160000000      5.421182570000000      0.208764670000000
C       7.908187700000000      6.295746500000000      0.573214720000000
Si      7.767263260000000      6.204273130000000      2.581669640000000
C       9.398011280000000      7.122663720000000      3.049365610000000
Si      6.286753330000000     -0.027073670000000      0.079041370000000
C       7.748537830000000      0.850473080000000      0.702175230000000
Si      7.713371980000000      0.975248840000000      2.720093670000000
C       9.295770090000000      1.831603370000000      3.120986840000000
Si      7.630721430000000      2.590363940000000      0.032644260000000
C       9.127938190000000      3.585562610000000      0.599161260000000
Si      9.245659910000001      3.677618170000000      2.574290690000000
C      10.921862300000001      4.492820050000000      3.110870510000000
Si      9.288834789999999      5.395039770000000     -0.155708490000000
C      10.832741860000001      6.283338020000000      0.437732370000000
Si     10.940329710000000      6.236736210000000      2.450513850000000
C      12.547653640000000      7.109908470000000      3.134832990000000
36

Si      0.012798640000000     -0.059219300000000     -0.104183940000000
C       1.579186300000000      0.731981230000000      0.680979240000000
Si      1.516211270000000      0.853044900000000      2.503102090000000
C       2.966199340000000      1.894683350000000      3.111325540000000
Si      1.759002590000000      2.640728420000000      0.088910000000000
C       3.095552150000000      3.692057730000000      0.666888020000000
Si      2.977331780000000      3.610402550000000      2.591508150000000
C       4.596220310000000      4.270356100000000      3.230785760000000
Si      3.088693950000000      5.273264700000000     -0.012820570000000
C       4.624068920000000      6.305901020000000      0.537522740000000
Si      4.680771140000000      6.246625240000000      2.462515240000000
C       6.249880920000000      7.053592600000000      2.917923440000000
Si      3.044894100000000     -0.123805210000000     -0.056458720000000
C       4.467892250000000      0.906726050000000      0.543431860000000
Si      4.527019850000000      1.174497380000000      2.458027470000000
C       6.194954100000000      1.801359100000000      2.964155930000000
Si      4.567733400000000      2.677083010000000      0.075020420000000
C       6.267092570000000      3.726189720000000      0.769815480000000
Si      6.233987200000000      3.671301720000000      2.755373120000000
C       7.793480290000000      4.526919560000000      3.363418450000000
Si      6.109415010000000      5.358117150000000     -0.108369320000000
C       7.758905620000000      6.151941120000000      0.480779650000000
Si      7.830335960000000      6.430590350000000      2.366262920000000
C       9.331038160000000      7.375919120000000      2.889664240000000
Si      6.165049510000000     -0.059357850000000      0.048683130000000
C       7.822341910000000      0.818680880000000      0.484255240000000
Si      7.778902330000000      0.823777100000000      2.472379580000000
C       9.306391639999999      1.751361980000000      3.114248720000000
Si      7.877350280000000      2.698653270000000      0.115773150000000
C       9.479589590000000      3.426613950000000      0.775062500000000
Si      9.161628289999999      3.554266930000000      2.693953810000000
C      10.785856580000001      4.525156570000000      3.221868170000000
Si      9.295392870000001      5.343735020000000      0.204531980000000
C      10.748869700000000      6.282340150000000      0.650910450000000
Si     10.876290060000001      6.300442290000000      2.746076430000000
C      12.571611190000000      7.013357450000000      3.292106470000000
36

Si     -0.280386300000000     -0.076903740000000     -0.134474870000000
C       1.573919110000000      0.763647340000000      0.455756840000000
Si      1.283896980000000      0.884920500000000      2.253499390000000
C       3.067692560000000      1.780570650000000      2.991002880000000
Si      1.532592010000000      2.646526100000000     -0.024430990000000
C       3.187865520000000      3.610619730000000      0.287998230000000
Si      3.210865760000000      3.484596920000000      2.608733280000000
C       4.570372150000000      4.523923760000000      3.008599640000000
Si      3.129614720000000      5.559334220000000     -0.147568520000000
C       4.682679680000000      6.213008990000000      0.711462960000000
Si      4.691706560000000      6.206901830000000      2.564700050000000
C       6.205233610000000      7.196324870000000      2.962691710000000
Si      3.089659250000000     -0.009776430000000      0.001284640000000
C       4.652816140000000      0.835418620000000      0.604628090000000
Si      4.399987600000000      0.877591810000000      2.379381410000000
C       6.099184950000000      1.672963390000000      3.160038500000000
Si      4.738721120000000      2.678058710000000     -0.049095130000000
C       6.143920590000000      3.663428900000000      0.455524540000000
Si      6.435969480000000      3.594777220000000      2.605905820000000
C       7.933778590000000      4.437522640000000      3.305556130000000
Si      6.212701090000000      5.565308440000000     -0.001020510000000
C       7.774780530000000      6.345471120000000      0.698977420000000
Si      7.720968390000000      6.398686540000000      2.621641190000000
C       9.236395849999999      7.295394450000000      3.256899680000000
Si      6.052173060000000     -0.010210970000000      0.166749290000000
C       7.531904280000000      1.029707380000000      0.565842780000000
Si      7.577519120000000      0.634498750000000      2.495665430000000
C       9.100208500000001      1.615424370000000      3.180541210000000
Si      7.916521960000000      2.810756660000000      0.148123660000000
C       9.475662379999999      3.684032580000000      0.924513470000000
Si      9.559643980000001      3.435926190000000      2.747826040000000
C      11.052942350000000      4.470556230000000      3.342745550000000
Si      9.390449680000000      5.515881490000000      0.231096120000000
C      11.066731539999999      6.230595720000000      0.872272930000000
Si     10.801422840000001      6.124106560000000      2.607217600000000
C      12.373725270000000      7.104380440000000      3.436329530000000
36

Si      0.034381290000000     -0.028721700000000      0.036402140000000
C       1.620577570000000      0.896950990000000      0.681140590000000
Si      1.644186230000000      0.984742370000000      2.603731010000000
C       3.131227070000000      1.877580860000000      3.239137700000000
Si      1.610705040000000      2.648381980000000      0.079874100000000
C       3.093810010000000      3.566751300000000      0.695637540000000
Si      3.109648770000000      3.601026620000000      2.567678320000000
C       4.728828540000000      4.533889340000000      3.231671020000000
Si      3.074816950000000      5.342040210000000     -0.069552710000000
C       4.573840220000000      6.276173530000000      0.637367370000000
Si      4.653639290000000      6.232053030000000      2.679327900000000
C       6.224950300000000      7.155994160000000      3.157215220000000
Si      3.116430180000000      0.084050750000000     -0.041994110000000
C       4.553194690000000      0.996943720000000      0.685397680000000
Si      4.668810390000000      0.909337360000000      2.611962570000000
C       6.274945220000000      1.830787650000000      3.085093450000000
Si      4.554015180000000      2.662256540000000     -0.039023720000000
C       6.112941660000000      3.583110740000000      0.594419500000000
Si      6.180145560000000      3.623789870000000      2.465783060000000
C       7.780524430000000      4.425593020000000      3.138779560000000
Si      6.112102430000000      5.312067360000000      0.056238370000000
C       7.711910170000000      6.288879360000000      0.584555760000000
Si      7.786927020000000      6.220245380000000      2.470645960000000
C       9.249586839999999      7.125631930000000      3.222421470000000
Si      6.122596440000000     -0.060572300000000      0.034973180000000
C       7.728904170000000      0.860111710000000      0.707958560000000
Si      7.748234380000000      0.966232410000000      2.501320290000000
C       9.312037719999999      1.831282730000000      3.199304820000000
Si      7.687084030000000      2.674954690000000      0.028661920000000
C       9.204482540000001      3.526306070000000      0.641979460000000
Si      9.321702050000001      3.517273330000000      2.512665200000000
C      10.880531830000001      4.459165280000000      3.102464840000000
Si      9.250978699999999      5.326036230000000     -0.027583880000000
C      10.828388110000001      6.152984640000000      0.634929850000000
Si     10.902761430000000      6.274658280000000      2.517927550000000
C      12.449903420000000      7.157642070000000      3.183462860000000
36

Si      0.245869460000000      0.074360400000000      0.136234550000000
C       1.690679380000000      0.723169240000000      0.895511030000000
Si      1.785215960000000      0.942656270000000      2.710289650000000
C       3.258699490000000      1.634093470000000      3.419908870000000
Si      1.379628740000000      2.686149700000000      0.230826750000000
C       3.031376060000000      3.544822050000000      0.763893460000000
Si      2.900099700000000      3.507457690000000      2.625288490000000
C       4.608791200000000      4.377488440000000      3.239732590000000
Si      3.203026960000000      5.594226660000000      0.083080280000000
C       4.714484240000000      6.323457660000000      0.658655420000000
Si      4.598615900000000      6.261000030000000      2.469844800000000
C       6.291197320000000      7.161785020000000      3.274099190000000
Si      3.072115790000000     -0.194082880000000      0.121506140000000
C       4.830290380000000      0.856244030000000      0.606331860000000
Si      4.878397880000000      0.921631300000000      2.550417120000000
C       6.401669690000000      1.823213870000000      3.174393730000000
Si      4.374203870000000      2.533751910000000      0.053189220000000
C       5.895603130000000      3.672437450000000      0.614592820000000
Si      6.192596790000000      3.542454960000000      2.544576300000000
C       7.629334990000000      4.408931590000000      3.181180340000000
Si      6.041467540000000      5.397701670000000     -0.113834900000000
C       7.694230180000000      6.154491930000000      0.588550980000000
Si      7.769104020000000      6.242407890000000      2.633193080000000
C       9.522565139999999      7.201222570000000      3.248813070000000
Si      6.416545300000000     -0.148630010000000      0.097106300000000
C       7.859569390000000      1.065196100000000      0.762571450000000
Si      7.852289480000000      0.985524620000000      2.495142520000000
C       9.284746170000000      1.954926570000000      3.401144730000000
Si      7.482624410000000      2.675323510000000     -0.177048060000000
C       9.225240510000001      3.634749430000000      0.410418800000000
Si      9.266349300000000      3.669719760000000      2.300909700000000
C      10.755110050000001      4.607167460000000      3.132760670000000
Si      9.255602000000000      5.320330410000000     -0.145903080000000
C      10.748391500000000      6.070921160000000      0.384698670000000
Si     10.738378600000001      6.307138170000000      2.204017480000000
C      12.315650410000000      7.263019400000000      3.063662690000000
36

Si      0.058697670000000      0.015134310000000      0.049152440000000
C       1.530407550000000      0.901929040000000      0.397440680000000
Si      1.658662570000000      0.974426060000000      2.496039150000000
C       3.212676740000000      1.810119900000000      3.021361100000000
Si      1.572836010000000      2.736764290000000     -0.018213980000000
C       3.055836590000000      3.557737430000000      0.499628750000000
Si      3.439999300000000      3.624899800000000      2.540832110000000
C       4.778442930000000      4.710981090000000      3.262077740000000
Si      3.054652960000000      5.347455960000000     -0.041844660000000
C       4.513078440000000      6.345324460000000      0.761736260000000
Si      4.536491380000000      6.269219230000000      2.596428020000000
C       6.112655890000000      7.284014440000000      3.116096040000000
Si      3.100097570000000     -0.008672480000000     -0.081172050000000
C       4.655344360000000      1.033474250000000      0.676915510000000
Si      4.665461390000000      0.736706240000000      2.563173270000000
C       6.180560620000000      1.702190430000000      3.171179840000000
Si      4.578881160000000      2.704515610000000      0.039437950000000
C       6.048332700000000      3.552287630000000      0.728648250000000
Si      6.220598440000000      3.450519020000000      2.505319880000000
C       7.785922160000000      4.200604620000000      3.018531340000000
Si      6.112039780000000      5.305621880000000      0.096052860000000
C       7.790210500000000      6.270733210000000      0.703325830000000
Si      7.518660960000000      6.128341830000000      2.578208550000000
C       9.160721100000000      7.047010090000000      3.293047300000000
Si      6.086314890000000      0.091807510000000      0.057720140000000
C       7.887247180000000      0.946447830000000      0.733526290000000
Si      7.708373020000000      0.930102170000000      2.604482280000000
C       9.414180010000001      1.782150980000000      3.223145850000000
Si      7.724736440000000      2.674174210000000      0.035912500000000
C       9.337026379999999      3.596607660000000      0.664607410000000
Si      9.467194630000000      3.579454770000000      2.465072390000000
C      11.092904239999999      4.471498030000000      3.169111300000000
Si      9.223485380000000      5.302911720000000     -0.000902110000000
C      10.877267110000000      6.310038940000000      0.724722630000000
Si     10.767722760000000      6.302320440000000      2.490886840000000
C      12.224794290000000      7.312930530000000      3.286950760000000
36

Si     -0.158860350000000     -0.127859080000000     -0.062927040000000
C       1.403720680000000      1.001192990000000      0.550604550000000
Si      1.474520990000000      0.751648210000000      2.421123870000000
C       2.942087970000000      1.648159930000000      3.135830020000000
Si      1.524286620000000      2.855324340000000      0.049931820000000
C       3.135237390000000      3.521543990000000      0.610796730000000
Si      2.997911970000000      3.474428890000000      2.469241030000000
C       4.543810200000000      4.557927080000000      3.047299200000000
Si      3.098232410000000      5.391600470000000      0.018431700000000
C       4.768631850000000      6.189675170000000      0.595078660000000
Si      4.673038430000000      6.195669310000000      2.585004230000000
C       6.165810060000000      7.170334180000000      3.138379250000000
Si      3.083941300000000      0.029203360000000      0.018254820000000
C       4.677602950000000      0.863027050000000      0.622307520000000
Si      4.760717870000000      0.880242350000000      2.709624420000000
C       6.266102110000000      1.814070080000000      3.100488750000000
Si      4.647801670000000      2.725965800000000     -0.077256610000000
C       6.258498150000000      3.676847950000000      0.556467200000000
Si      6.035268770000000      3.687143230000000      2.473543060000000
C       7.779046610000000      4.512950570000000      3.100581420000000
Si      6.279600330000000      5.406175360000000     -0.090508900000000
C       7.733336710000000      6.320052430000000      0.504791880000000
Si      7.840674020000000      6.121399530000000      2.451688750000000
C       9.282737720000000      7.062877050000000      3.161400140000000
Si      6.130643800000000      0.104257130000000      0.042495580000000
C       7.668073290000000      0.881712440000000      0.589152460000000
Si      7.861965860000000      0.898523550000000      2.539202830000000
C       9.151556630000000      1.871500610000000      3.325818600000000
Si      7.798008370000000      2.763407420000000      0.196486590000000
C       9.265287530000000      3.579360480000000      0.795395630000000
Si      9.319160139999999      3.543750810000000      2.659342370000000
C      11.022717710000000      4.380478040000000      3.346329760000000
Si      9.332058390000000      5.426350690000000      0.067414040000000
C      10.823700770000000      6.319945950000000      0.751786840000000
Si     10.903679120000000      6.209136540000000      2.615515240000000
C      12.517712410000000      7.065355230000000      3.262277730000000
36

Si     -0.171859280000000      0.032667420000000      0.078469110000000
C       1.489838790000000      0.868090230000000      0.602757190000000
Si      1.494041090000000      0.950141030000000      2.527250870000000
C       3.103494830000000      1.788701720000000      3.259895970000000
Si      1.537609590000000      2.703709350000000      0.015785870000000
C       3.049236850000000      3.476478530000000      0.695278510000000
Si      3.155984090000000      3.550864180000000      2.628525850000000
C       4.692467220000000      4.502658020000000      3.194859650000000
Si      3.138721500000000      5.297891190000000      0.090957660000000
C       4.695581860000000      6.220187190000000      0.610455150000000
Si      4.697394670000000      6.226027650000000      2.567499070000000
C       6.164999400000000      7.210376140000000      3.233075410000000
Si      3.077223010000000      0.007594220000000     -0.059561530000000
C       4.557668290000000      0.906115370000000      0.567899650000000
Si      4.683882590000000      0.925810210000000      2.460493970000000
C       6.187742070000000      1.815871920000000      3.196964580000000
Si      4.621662150000000      2.699946240000000     -0.016639070000000
C       6.248176360000000      3.569450600000000      0.637399690000000
Si      6.238982150000000      3.558976230000000      2.496185230000000
C       7.684101510000000      4.500720230000000      3.068185520000000
Si      6.382968900000000      5.383740860000000     -0.003918440000000
C       7.849499460000000      6.362304610000000      0.671491130000000
Si      7.756321130000000      6.265182640000000      2.537416970000000
C       9.308922620000001      7.124606800000000      3.186615600000000
Si      6.145220150000000     -0.048418770000000      0.044144450000000
C       7.586305900000000      0.837054680000000      0.714159590000000
Si      7.705141840000000      0.933901670000000      2.634834800000000
C       9.262213579999999      1.858354990000000      3.104857690000000
Si      7.734612250000000      2.643879770000000     -0.025434630000000
C       9.160842349999999      3.611883210000000      0.631769230000000
Si      9.251255520000001      3.584233930000000      2.487844970000000
C      10.831969320000001      4.484264940000000      3.152978510000000
Si      9.351904190000001      5.400339020000000     -0.002147770000000
C      10.834403580000000      6.175074780000000      0.646095990000000
Si     10.887793840000001      6.195188080000000      2.567513500000000
C      12.496621380000001      7.182557240000000      3.154236020000000
36

Si     -0.125047720000000     -0.050012020000000     -0.087458700000000
C       1.498658460000000      0.793069870000000      0.586733310000000
Si      1.636742400000000      0.669662180000000      2.425386320000000
C       3.107442180000000      1.809677820000000      3.155956630000000
Si      1.655404510000000      2.613388120000000     -0.054909720000000
C       3.102303560000000      3.464294320000000      0.516127890000000
Si      3.286909110000000      3.632681140000000      2.514755740000000
C       4.663580930000000      4.542881870000000      3.119201280000000
Si      3.023820720000000      5.482784620000000      0.203177520000000
C       4.419745050000000      6.429046000000000      0.859511410000000
Si      4.690576390000000      6.366432550000000      2.628550750000000
C       6.400105420000000      7.187153870000000      3.306831340000000
Si      3.041753560000000      0.235464750000000     -0.086351510000000
C       4.556060070000000      0.921742450000000      0.676573310000000
Si      4.538936180000000      0.819272180000000      2.515973480000000
C       5.976867310000000      1.702030630000000      3.153172420000000
Si      4.805824940000000      2.888952440000000     -0.128103530000000
C       6.409840330000000      3.708021350000000      0.367844020000000
Si      6.425244380000000      3.370927700000000      2.499688160000000
C       7.905921650000000      4.467706600000000      3.181914700000000
Si      6.050634560000000      5.531612330000000      0.226980490000000
C       7.784917450000000      6.391429560000000      0.744379410000000
Si      7.771390930000000      6.276189850000000      2.473940610000000
C       9.331411800000000      7.099381920000000      3.382114900000000
Si      5.837817910000000      0.047687110000000     -0.130368370000000
C       7.535024560000000      0.848888600000000      0.667803470000000
Si      7.556634930000000      0.742177390000000      2.422815900000000
C       9.158618929999999      1.643164210000000      2.991715600000000
Si      7.998647720000000      2.554561140000000     -0.023404050000000
C       9.487913300000001      3.611035830000000      0.656617230000000
Si      9.319088040000000      3.467238500000000      2.393936780000000
C      11.010016700000000      4.465757560000000      3.198503650000000
Si      9.271379189999999      5.486745500000000      0.305228770000000
C      10.768046880000000      6.226181900000000      0.956369650000000
Si     10.801323529999999      6.191882380000000      2.661763170000000
C      12.325599970000001      7.145937140000000      3.433382530000000
36

Si      0.047773460000000      0.029304390000000     -0.070094750000000
C       1.619298390000000      1.095190840000000      0.556277510000000
Si      1.751643440000000      0.912288380000000      2.378543070000000
C       3.268252800000000      1.754503550000000      3.202694420000000
Si      1.537255470000000      2.793241190000000     -0.000904890000000
C       3.179972100000000      3.527835260000000      0.800725410000000
Si      3.432533040000000      3.549048850000000      2.642035190000000
C       4.797788600000000      4.573711400000000      3.232969030000000
Si      3.101495960000000      5.282071250000000     -0.105335330000000
C       4.454714880000000      6.230807080000000      0.665572440000000
Si      4.425101470000000      6.366703070000000      2.488512470000000
C       6.164686690000000      7.274160280000000      3.134272370000000
Si      2.965279960000000     -0.055025670000000     -0.065679500000000
C       4.543156870000000      0.774630660000000      0.710329350000000
Si      4.613489460000000      0.762751800000000      2.494716950000000
C       6.190501110000000      1.736014010000000      3.180570650000000
Si      4.642546660000000      2.726992480000000      0.023758460000000
C       6.105077360000000      3.544354550000000      0.670235260000000
Si      6.259695660000000      3.466487130000000      2.604081380000000
C       7.796675060000000      4.567578410000000      3.121593050000000
Si      6.147629140000000      5.406045720000000      0.001271100000000
C       7.650025590000000      6.393836300000000      0.670076190000000
Si      7.496758860000000      6.127089570000000      2.541715310000000
C       9.130116640000001      6.970709510000000      3.229083880000000
Si      6.119862620000000      0.114323590000000     -0.028481470000000
C       7.724710060000000      0.889249430000000      0.718450220000000
Si      7.797775750000000      0.867068700000000      2.543563320000000
C       9.145419570000000      1.778356120000000      3.189040760000000
Si      7.765462350000000      2.650664600000000      0.073004970000000
C       9.428862369999999      3.707535850000000      0.604187010000000
Si      9.436243340000001      3.481348430000000      2.540006460000000
C      11.016105840000000      4.410081750000000      3.225835110000000
Si      9.202952829999999      5.383794050000000      0.062975920000000
C      10.990190240000000      6.321634730000000      0.786170520000000
Si     10.833621950000000      6.299388880000000      2.613042840000000
C      12.259809760000000      7.290839110000000      3.314824170000000
36

Si      0.039832630000000     -0.020641540000000     -0.090940280000000
C       1.600613750000000      0.831234560000000      0.696753240000000
Si      1.426984900000000      0.850829770000000      2.444294860000000
C       2.987684140000000      1.823177010000000      3.171235520000000
Si      1.498913020000000      2.554508440000000      0.008142830000000
C       2.986743760000000      3.549259310000000      0.594018890000000
Si      3.019847370000000      3.580318120000000      2.469932220000000
C       4.559616370000000      4.242703150000000      3.229169140000000
Si      3.137168090000000      5.301533150000000      0.065151490000000
C       4.783595430000000      6.238908060000000      0.685932530000000
Si      4.806219010000000      6.165346660000000      2.671197070000000
C       6.183031790000000      7.093986530000000      3.180689220000000
Si      3.187854340000000      0.111517060000000     -0.069310660000000
C       4.589816790000000      0.921380860000000      0.598273070000000
Si      4.648091680000000      1.014619000000000      2.558050760000000
C       6.108467940000000      1.854555520000000      3.101936650000000
Si      4.575262770000000      2.722068520000000     -0.028655650000000
C       6.343883730000000      3.655453890000000      0.716473130000000
Si      6.071422110000000      3.737322520000000      2.555396950000000
C       7.617729740000000      4.498741770000000      3.250217480000000
Si      6.260273330000000      5.433090250000000      0.051033790000000
C       7.746499080000000      6.137424740000000      0.584761000000000
Si      7.888475560000000      6.304609160000000      2.529092630000000
C       9.441740370000000      7.338930800000000      3.156658020000000
Si      6.193871320000000     -0.002869370000000      0.094495070000000
C       7.764919690000000      0.819887040000000      0.627460090000000
Si      7.622774300000000      0.861101950000000      2.585585110000000
C       9.124213930000000      1.836120990000000      3.201507780000000
Si      7.763066230000000      2.708333410000000      0.161379290000000
C       9.254717510000001      3.429946660000000      0.712048890000000
Si      9.227565410000000      3.592804610000000      2.632197630000000
C      10.861552150000000      4.511263980000000      3.240358240000000
Si      9.332700259999999      5.256562910000000     -0.131810180000000
C      10.788252360000000      6.190838810000000      0.356532690000000
Si     10.933613080000001      6.360022450000000      2.573167350000000
C      12.589436460000000      7.007906230000000      3.109952520000000
36

Si      0.027093570000000     -0.004903320000000      0.144607030000000
C       1.558387660000000      0.937579100000000      0.679741950000000
Si      1.573476000000000      0.916563540000000      2.570313330000000
C       3.114566380000000      1.732072340000000      3.289785340000000
Si      1.605155670000000      2.738436510000000      0.130815450000000
C       3.089195260000000      3.744390170000000      0.658124510000000
Si      3.042141710000000      3.493561650000000      2.578491660000000
C       4.698704670000000      4.444736190000000      3.213402570000000
Si      3.071369520000000      5.427566240000000      0.004575420000000
C       4.710817400000000      6.244370470000000      0.661359590000000
Si      4.663249440000000      6.245220420000000      2.564458890000000
C       6.204204270000000      7.144322820000000      3.190107570000000
Si      3.198356210000000      0.012856080000000     -0.023658810000000
C       4.695775030000000      0.862449140000000      0.646819780000000
Si      4.586196050000000      0.861194950000000      2.588774320000000
C       6.142927020000000      1.818876410000000      3.168298860000000
Si      4.624754840000000      2.706564140000000     -0.088682370000000
C       6.192617650000000      3.639131810000000      0.643029590000000
Si      6.153251130000000      3.562217440000000      2.490699670000000
C       7.716183940000000      4.465115850000000      3.017069850000000
Si      6.262642280000000      5.346951510000000     -0.000507770000000
C       7.764571290000000      6.333649980000000      0.574555000000000
Si      7.771680970000000      6.300944730000000      2.449560850000000
C       9.328468960000000      7.038304430000000      3.194996630000000
Si      6.211577670000000     -0.025421160000000      0.006132250000000
C       7.743341860000000      0.871203740000000      0.695281320000000
Si      7.636821970000000      0.894262900000000      2.542643620000000
C       9.318940250000001      1.823401680000000      3.185375010000000
Si      7.750164960000000      2.672436590000000     -0.006277530000000
C       9.287355860000000      3.572353860000000      0.588058490000000
Si      9.225915850000000      3.504201000000000      2.513726010000000
C      10.778196599999999      4.427795940000000      3.186878060000000
Si      9.283687060000000      5.384654030000000     -0.028828500000000
C      10.769070530000000      6.265432940000000      0.641017010000000
Si     10.831274870000000      6.270921560000000      2.543634990000000
C      12.488390270000000      7.137622420000000      3.209048910000000
36

Si     -0.114539500000000     -0.069468440000000     -0.063131310000000
C       1.443103050000000      0.902956670000000      0.666403660000000
Si      1.555836830000000      0.779593270000000      2.565316420000000
C       2.934922960000000      1.775001560000000      3.110119110000000
Si      1.415439930000000      2.612001970000000      0.028966810000000
C       2.928168500000000      3.483175900000000      0.710492940000000
Si      3.165161620000000      3.598068270000000      2.569518970000000
C       4.617388630000000      4.251861420000000      3.369271980000000
Si      3.278130040000000      5.195252810000000     -0.054637460000000
C       4.664588340000000      6.172623810000000      0.527630170000000
Si      4.637800720000000      6.230779480000000      2.403712040000000
C       6.276627790000000      7.098728840000000      3.193840800000000
Si      3.054790570000000      0.181572550000000     -0.142888730000000
C       4.670813860000000      1.082785920000000      0.621171470000000
Si      4.756116360000000      0.988822010000000      2.375146810000000
C       6.349289640000000      1.688754670000000      3.219648350000000
Si      4.605935400000000      2.783484080000000      0.052903500000000
C       6.058614720000000      3.676953880000000      0.658517710000000
Si      6.102168820000000      3.641210190000000      2.524675520000000
C       7.742900530000000      4.462348340000000      3.197245000000000
Si      6.324924870000000      5.485384670000000     -0.029418150000000
C       8.053530920000000      6.327556550000000      0.539103590000000
Si      7.796369580000000      6.263521810000000      2.418138260000000
C       9.281668990000000      7.186936110000000      3.132726290000000
Si      6.074272450000000      0.037848830000000      0.094617690000000
C       7.738345300000000      0.901515060000000      0.750172600000000
Si      7.856261450000000      0.810816900000000      2.609363890000000
C       9.359862070000000      1.836611260000000      3.285042240000000
Si      7.705180300000000      2.768853270000000      0.064339080000000
C       9.191129180000001      3.636812210000000      0.865044400000000
Si      9.363884080000000      3.638767580000000      2.751743400000000
C      10.846035150000001      4.478058520000000      3.370200490000000
Si      9.366273540000000      5.379291410000000     -0.006671970000000
C      10.824888630000000      6.232359980000000      0.759357580000000
Si     10.633986920000000      6.151709140000000      2.545160480000000
C      12.481445310000000      6.911936310000000      3.106778970000000
36

Si      0.186897320000000     -0.048992340000000      0.133552860000000
C       1.611178220000000      0.913458570000000      0.827619870000000
Si      1.741549250000000      0.721148470000000      2.747524380000000
C       3.388254020000000      1.620445810000000      3.401532850000000
Si      1.584138730000000      2.677994110000000     -0.002453000000000
C       3.142829010000000      3.730680140000000      0.607812170000000
Si      3.297668800000000      3.590705390000000      2.473570830000000
C       4.953194900000000      4.498899610000000      3.326543910000000
Si      2.823402860000000      5.538060130000000      0.438520290000000
C       4.557276540000000      6.259788980000000      0.771439020000000
Si      4.857172580000000      6.177628310000000      2.757825320000000
C       6.142899350000000      7.254390040000000      3.350818480000000
Si      3.130949380000000      0.126675540000000      0.024989820000000
C       4.489203960000000      1.043357770000000      0.581042450000000
Si      4.606935680000000      0.997686990000000      2.399184760000000
C       6.063076910000000      1.738095030000000      3.171774190000000
Si      4.533625350000000      2.855281880000000     -0.137586210000000
C       6.171736200000000      3.553871370000000      0.541388510000000
Si      6.363613640000000      3.553513620000000      2.493544020000000
C       7.822183190000000      4.392613150000000      2.957955210000000
Si      6.223107820000000      5.315763760000000     -0.046642650000000
C       7.657220630000000      6.348395140000000      0.792971870000000
Si      7.793445760000000      6.325033210000000      2.651511800000000
C       9.330869500000000      7.080111670000000      3.136182700000000
Si      6.128042900000000      0.221464510000000     -0.117139600000000
C       7.676872160000000      0.972755000000000      0.481748160000000
Si      7.628906560000000      0.590830790000000      2.359044290000000
C       9.467790230000000      1.749629360000000      3.372163070000000
Si      7.444836410000000      2.760034910000000     -0.258867420000000
C       9.140351570000000      3.496680480000000      0.548555410000000
Si      9.252834520000000      3.291203560000000      2.370222860000000
C      11.042301439999999      4.414954350000000      3.102315480000000
Si      9.171824160000000      5.402333090000000     -0.049201810000000
C      10.688825019999999      6.517063120000000      0.790447020000000
Si     10.704977100000001      6.176410250000000      2.492449440000000
C      12.360597880000000      7.000519080000000      3.266220390000000
36

Si     -0.020931010000000     -0.025992970000000     -0.081187560000000
C       1.479943580000000      0.796604960000000      0.663017350000000
Si      1.426535000000000      0.804935620000000      2.492240910000000
C       3.013727450000000      1.564324750000000      3.044332090000000
Si      1.522640150000000      2.773041350000000      0.033012700000000
C       3.081950930000000      3.620346100000000      0.686602330000000
Si      2.990833580000000      3.326953410000000      2.671634030000000
C       4.491607750000000      4.432497370000000      3.195088790000000
Si      3.067964920000000      5.346347130000000      0.072008090000000
C       4.731828370000000      6.353219280000000      0.557531980000000
Si      4.766125880000000      6.363167790000000      2.496042010000000
C       6.235873030000000      7.137437390000000      3.230494640000000
Si      3.024104680000000      0.074235070000000     -0.011267640000000
C       4.522844200000000      0.938537180000000      0.485049430000000
Si      4.691970150000000      0.926436900000000      2.523090290000000
C       6.234814490000000      1.730901100000000      3.115619060000000
Si      4.661685570000000      2.786015730000000     -0.028713110000000
C       6.290017320000000      3.708651010000000      0.676826410000000
Si      6.111400910000000      3.688914220000000      2.587137220000000
C       7.694195340000000      4.467181860000000      3.312607980000000
Si      6.288957250000000      5.409478730000000     -0.032590490000000
C       7.749284190000000      6.163796060000000      0.663207380000000
Si      7.933658230000000      6.336063710000000      2.477756000000000
C       9.588966760000000      7.289047840000000      3.081527730000000
Si      6.179760420000000      0.037325180000000      0.041435250000000
C       7.726308620000000      0.918368170000000      0.645758410000000
Si      7.657639940000000      0.801752120000000      2.413863890000000
C       9.349010120000001      1.733080050000000      3.094553300000000
Si      7.794562150000000      2.802917450000000      0.229652980000000
C       9.232973940000001      3.494976020000000      0.825320990000000
Si      9.295509330000000      3.483227850000000      2.676547400000000
C      10.786940250000001      4.472548730000000      3.340497350000000
Si      9.208401530000000      5.351989400000000     -0.027070320000000
C      10.740851859999999      6.229555990000000      0.553584960000000
Si     10.992004180000000      6.190877300000000      2.542184350000000
C      12.477510880000001      7.055491220000000      3.048494330000000
36

Si     -0.075560980000000     -0.047591450000000     -0.088484480000000
C       1.420470950000000      0.926564390000000      0.578301960000000
Si      1.442863860000000      0.780224910000000      2.422477600000000
C       3.135219510000000      1.573704150000000      3.146530880000000
Si      1.409935730000000      2.723734210000000      0.026936440000000
C       3.037089610000000      3.458714630000000      0.514412190000000
Si      3.130806710000000      3.433035370000000      2.500470880000000
C       4.539043640000000      4.330364790000000      3.386184580000000
Si      3.155222260000000      5.340293690000000     -0.034753480000000
C       4.734212130000000      6.267802860000000      0.564591200000000
Si      4.698127910000000      6.101984560000000      2.467007440000000
C       6.252854200000000      7.059268370000000      3.258071900000000
Si      3.260644020000000      0.112720580000000      0.028493680000000
C       4.647984970000000      1.012705760000000      0.824046430000000
Si      4.741122030000000      0.958818420000000      2.665891360000000
C       6.311969900000000      1.816261350000000      3.129314240000000
Si      4.672059960000000      2.868891100000000     -0.128751210000000
C       6.080202150000000      3.699121740000000      0.669235640000000
Si      6.106075580000000      3.577490030000000      2.546425050000000
C       7.602499600000000      4.379959420000000      3.103088910000000
Si      6.249851950000000      5.369581420000000     -0.092832720000000
C       7.726171040000000      6.343735720000000      0.632756890000000
Si      7.923352940000000      6.144564890000000      2.433947100000000
C       9.428083859999999      7.254096320000000      3.195546080000000
Si      6.163624550000000      0.093902920000000      0.132149220000000
C       7.826264270000000      0.896947840000000      0.711909850000000
Si      7.791609400000000      0.871246560000000      2.603373470000000
C       9.148606950000000      1.813749990000000      3.289654590000000
Si      7.710639570000000      2.752446650000000      0.103560370000000
C       9.156487730000000      3.795787940000000      0.742055120000000
Si      9.273119489999999      3.540694630000000      2.540524650000000
C      10.740977350000000      4.476974220000000      3.262360180000000
Si      9.136912760000000      5.383497790000000     -0.018886380000000
C      11.027257100000000      6.296562390000000      0.707954450000000
Si     10.913882020000001      6.265976430000000      2.683274630000000
C      12.352609350000000      7.186341260000000      3.170407730000000
36

Si     -0.088539160000000     -0.202037530000000      0.091605140000000
C       1.436944980000000      0.800979480000000      0.585630420000000
Si      1.433869140000000      1.237077530000000      2.674135170000000
C       3.097270000000000      1.846322750000000      3.226820160000000
Si      1.570199990000000      2.571882970000000     -0.102900980000000
C       3.267332920000000      3.445096810000000      0.674869220000000
Si      3.316474500000000      3.634930310000000      2.454129650000000
C       4.854290430000000      4.533273840000000      3.218929360000000
Si      2.981212170000000      5.411657480000000      0.310405920000000
C       4.583656270000000      6.314543780000000      0.991048770000000
Si      4.640423710000000      6.366176300000000      2.968229810000000
C       6.118629550000000      7.322343700000000      3.511245140000000
Si      3.112763330000000      0.077459580000000      0.049056470000000
C       4.670121270000000      0.770551490000000      0.529090140000000
Si      4.491297550000000      0.751172130000000      2.493658900000000
C       6.246105810000000      1.776819360000000      3.080920150000000
Si      4.862270330000000      2.676199170000000     -0.182547670000000
C       6.462948500000000      3.525152750000000      0.476639540000000
Si      6.252785230000000      3.487998220000000      2.161767630000000
C       7.879928110000000      4.346284330000000      2.984168820000000
Si      6.184355120000000      5.591672980000000      0.218357730000000
C       7.717471190000000      6.427960660000000      0.573214090000000
Si      7.792263320000000      6.319159520000000      2.677288600000000
C       9.224305729999999      7.061063700000000      3.377096640000000
Si      6.226236700000000      0.067258890000000      0.022448920000000
C       7.734180220000000      0.816562390000000      0.427758380000000
Si      7.606612540000000      0.756387460000000      2.292351380000000
C       9.012591490000000      1.842374410000000      2.930850030000000
Si      7.830005950000000      2.623054360000000     -0.051708650000000
C       9.434854350000000      3.505090420000000      0.501185830000000
Si      9.340548920000000      3.577757620000000      2.461637720000000
C      10.875159540000000      4.292502080000000      3.140941950000000
Si      9.206112750000001      5.432646460000000     -0.108343830000000
C      10.819083370000000      6.455191830000000      0.760390970000000
Si     10.716519119999999      6.084680910000000      2.702307910000000
C      12.268320729999999      7.053800910000000      3.098126450000000
36

Si      0.202910970000000      0.088010990000000      0.288514880000000
C       1.739551500000000      1.127683440000000      0.900691550000000
Si      1.813768970000000      0.760935050000000      2.701914840000000
C       3.371146910000000      1.761121820000000      3.381811430000000
Si      1.649316490000000      2.774861230000000     -0.077483230000000
C       3.205235220000000      3.542804430000000      0.545801890000000
Si      3.173257680000000      3.592048980000000      2.661690510000000
C       4.629195630000000      4.589548830000000      3.102783060000000
Si      2.936789240000000      5.510585850000000      0.194740980000000
C       4.531977180000000      6.101249990000000      0.923475150000000
Si      4.637736760000000      6.321812540000000      2.586614070000000
C       6.246403230000000      7.151628500000000      3.211767490000000
Si      3.175098000000000      0.194538520000000     -0.060981430000000
C       4.643836140000000      0.795002850000000      0.646937050000000
Si      4.773051290000000      0.811992150000000      2.558723060000000
C       6.329366130000000      1.868524090000000      3.199963510000000
Si      4.751698470000000      2.818066650000000     -0.268287480000000
C       6.144631670000000      3.635525100000000      0.612241280000000
Si      5.929254060000000      3.552245710000000      2.316109520000000
C       7.684352290000000      4.172092580000000      3.078115300000000
Si      6.042786760000000      5.542601910000000     -0.041794150000000
C       7.725745880000000      6.338883050000000      0.670941750000000
Si      7.695962270000000      5.986762610000000      2.551585800000000
C       9.121784330000001      7.032085260000000      3.238365510000000
Si      6.150725790000000      0.116794240000000     -0.115634120000000
C       7.521469240000000      0.978492250000000      0.715438690000000
Si      7.838450890000000      0.774053930000000      2.529602460000000
C       9.406188520000001      1.687337540000000      3.143418910000000
Si      7.645436920000000      2.569151200000000     -0.148553820000000
C       9.329161900000001      3.481108730000000      0.497894610000000
Si      9.334331280000001      3.432662060000000      2.495884830000000
C      10.808226560000000      4.431825040000000      3.119704980000000
Si      9.076731190000000      5.381154560000000     -0.080101670000000
C      10.779126000000000      6.460859100000000      0.639944560000000
Si     10.675563130000000      6.195656930000000      2.698424530000000
C      12.421588430000000      7.076478960000000      3.256784830000000
36

Si      0.102533800000000      0.255588600000000      0.039598260000000
C       1.697959010000000      0.993807260000000      0.677692260000000
Si      1.658290690000000      0.918807730000000      2.719314660000000
C       3.283092240000000      1.865958290000000      3.101453380000000
Si      1.397250130000000      2.686612840000000      0.212241090000000
C       3.119196410000000      3.585119300000000      0.671562450000000
Si      3.217666710000000      3.460385310000000      2.459388840000000
C       4.611802760000000      4.327432930000000      3.206749610000000
Si      3.055087190000000      5.500128010000000      0.066043010000000
C       4.675531700000000      6.574997550000000      0.648785620000000
Si      4.832890110000000      6.154146180000000      2.577390400000000
C       6.200586800000000      7.203813860000000      3.321815480000000
Si      3.180189270000000     -0.196434980000000     -0.083115770000000
C       4.572600300000000      0.926700590000000      0.615352190000000
Si      4.799624860000000      0.893177100000000      2.624276880000000
C       6.525295620000000      1.676445190000000      3.134654040000000
Si      4.473661570000000      2.512965620000000     -0.146934210000000
C       5.881646990000000      3.512340350000000      0.508988620000000
Si      6.232552360000000      3.582670540000000      2.620853390000000
C       7.760436610000000      4.235587930000000      3.141514070000000
Si      6.111061180000000      5.232791670000000     -0.010710560000000
C       7.588915970000000      6.319266230000000      0.667766420000000
Si      7.565045220000000      6.380824000000000      2.482211040000000
C       9.210074010000000      7.161851610000000      3.049994340000000
Si      6.165982700000000      0.210167610000000      0.026464710000000
C       8.013587260000000      1.032896780000000      0.822733130000000
Si      8.055862550000001      0.769356250000000      2.698367240000000
C       9.393630670000000      1.871805790000000      3.252533410000000
Si      7.550260840000000      2.702835570000000     -0.165464280000000
C       9.105407290000000      3.521631050000000      0.464843970000000
Si      9.343527150000000      3.547263490000000      2.428950780000000
C      10.906939460000000      4.559637630000000      3.123176880000000
Si      9.139422000000000      5.394107550000000      0.103845990000000
C      10.492004789999999      6.350041560000000      0.502466640000000
Si     10.649611600000000      6.213531340000000      2.526652100000000
C      12.535625010000000      6.992297240000000      3.065788230000000
36

Si     -0.033557840000000     -0.038543050000000      0.026498200000000
C       1.422277420000000      0.943685960000000      0.576836130000000
Si      1.580948600000000      0.878517210000000      2.416430670000000
C       3.088480950000000      1.741949660000000      3.148353770000000
Si      1.453313840000000      2.680511710000000      0.014574000000000
C       3.101892810000000      3.623564760000000      0.580708340000000
Si      3.103577580000000      3.545104950000000      2.473120740000000
C       4.580509330000000      4.378067080000000      3.195823790000000
Si      3.102308260000000      5.350046670000000     -0.052979030000000
C       4.622124080000000      6.244929690000000      0.704995890000000
Si      4.712018490000000      6.236999570000000      2.502052550000000
C       6.233821110000000      7.191713570000000      3.144259670000000
Si      3.086756660000000      0.030150720000000     -0.040431030000000
C       4.650884400000000      0.910637520000000      0.690016970000000
Si      4.568905730000000      0.779899600000000      2.587982230000000
C       6.044617360000000      1.858477920000000      3.169760340000000
Si      4.667681610000000      2.708086830000000      0.003398040000000
C       6.237663730000000      3.556200790000000      0.717458200000000
Si      6.236928390000000      3.644756050000000      2.616295600000000
C       7.717001750000000      4.581375520000000      3.239317960000000
Si      6.206434900000000      5.369986340000000      0.116590550000000
C       7.756379870000000      6.299719890000000      0.664917470000000
Si      7.765967250000000      6.265605660000000      2.468458020000000
C       9.351564850000001      7.124668070000000      3.272282480000000
Si      6.122560400000000     -0.043307950000000      0.045911500000000
C       7.685519280000000      0.884570530000000      0.547223090000000
Si      7.753549210000000      0.834819010000000      2.521893600000000
C       9.266879810000001      1.756706730000000      3.179274850000000
Si      7.773992350000000      2.628788180000000     -0.056434910000000
C       9.272922010000000      3.619524050000000      0.663101080000000
Si      9.300288970000000      3.607863410000000      2.586903090000000
C      10.841839630000001      4.527845220000000      3.203151230000000
Si      9.332070750000000      5.405971270000000      0.019676670000000
C      10.874998840000000      6.297282850000000      0.723782350000000
Si     10.953556580000001      6.328521940000000      2.654183720000000
C      12.458350420000000      7.182744900000000      3.200226830000000
36

Si      0.046520220000000      0.060043500000000      0.047404340000000
C       1.676796370000000      0.845159490000000      0.728124700000000
Si      1.607745060000000      0.882413850000000      2.623136260000000
C       3.091434640000000      1.827934410000000      3.239293030000000
Si      1.584806930000000      2.650093610000000      0.021881700000000
C       3.113276050000000      3.480857450000000      0.633757860000000
Si      3.073344950000000      3.561892000000000      2.610283530000000
C       4.660830190000000      4.577601270000000      3.208777000000000
Si      3.139331800000000      5.385439970000000      0.086189960000000
C       4.730859600000000      6.309802120000000      0.627416780000000
Si      4.641280640000000      6.284786190000000      2.589400460000000
C       6.187351810000000      7.152415760000000      3.219099100000000
Si      3.085764520000000     -0.114940280000000      0.098414700000000
C       4.619408900000000      0.825971750000000      0.597527190000000
Si      4.659067160000000      0.955618840000000      2.488179000000000
C       6.301756750000000      1.758747780000000      3.213339060000000
Si      4.627318700000000      2.637910900000000     -0.047949540000000
C       6.159466360000000      3.602801680000000      0.557631370000000
Si      6.220080100000000      3.669621860000000      2.502486510000000
C       7.791287350000000      4.472194370000000      3.132113770000000
Si      6.150456510000000      5.417168910000000     -0.080192100000000
C       7.705497890000000      6.175101520000000      0.592210380000000
Si      7.688973360000000      6.282289260000000      2.586942540000000
C       9.214089520000000      7.203608530000000      3.062125910000000
Si      6.245981940000000      0.028337590000000      0.051653610000000
C       7.806320980000000      0.919618480000000      0.725633310000000
Si      7.737406420000000      0.829219490000000      2.592166590000000
C       9.310071060000000      1.689434180000000      3.239597300000000
Si      7.731218320000000      2.718291350000000     -0.014091290000000
C       9.264823470000000      3.550209790000000      0.636764390000000
Si      9.259245650000000      3.623812690000000      2.533003500000000
C      10.864809630000000      4.487850100000000      3.097152430000000
Si      9.234293010000000      5.344737060000000     -0.056796080000000
C      10.810238460000001      6.199008820000000      0.644007930000000
Si     10.768087189999999      6.251836950000000      2.436621720000000
C      12.335222000000000      7.049554850000000      3.082006130000000
36

Si      0.062741740000000      0.093839530000000      0.078908110000000
C       1.611663640000000      1.078274700000000      0.578406500000000
Si      1.543992890000000      0.938267840000000      2.535972570000000
C       3.099415410000000      1.726429140000000      3.181317440000000
Si      1.790562390000000      2.778461900000000     -0.157898590000000
C       3.298038660000000      3.596504670000000      0.644247000000000
Si      3.025928860000000      3.611938330000000      2.548381930000000
C       4.684554620000000      4.376868860000000      2.918073310000000
Si      3.081786760000000      5.529286490000000      0.104164170000000
C       4.500097890000000      6.368583020000000      0.687465040000000
Si      4.607012650000000      6.321359150000000      2.561233460000000
C       6.149302500000000      7.152577750000000      3.185576230000000
Si      3.134108430000000     -0.133259580000000      0.044992700000000
C       4.744406390000000      0.857696500000000      0.800716910000000
Si      4.620544040000000      0.824140830000000      2.622157420000000
C       6.404379770000000      1.854116630000000      3.254996280000000
Si      4.627408790000000      2.626768650000000     -0.069099490000000
C       6.303369070000000      3.384934820000000      0.571115710000000
Si      6.175066070000000      3.532324400000000      2.514473140000000
C       7.703919450000000      4.466789120000000      3.100287230000000
Si      6.042370760000000      5.199200040000000      0.039148320000000
C       7.641010770000000      6.137203900000000      0.736839380000000
Si      7.623350270000000      6.180351230000000      2.706399650000000
C       9.182851910000000      7.076854400000000      3.032318030000000
Si      6.146691260000000      0.103617080000000      0.112352210000000
C       7.809695880000000      0.986223400000000      0.565656890000000
Si      7.780520780000000      0.868875710000000      2.627636610000000
C       9.313495070000000      1.798992140000000      3.189578070000000
Si      7.894990380000000      2.796812740000000     -0.111239130000000
C       9.473606970000001      3.525672990000000      0.584205070000000
Si      9.240850340000000      3.555129980000000      2.625868680000000
C      10.872035540000001      4.504709180000000      3.157353190000000
Si      9.267340920000001      5.352683000000000      0.039554350000000
C      10.671222289999999      6.280479420000000      0.444080500000000
Si     10.750026730000000      6.181081990000000      2.392247040000000
C      12.380701419999999      7.206785250000000      3.261740250000000
36

Si      0.094219470000000      0.035102740000000      0.104707170000000
C       1.639492390000000      0.861336490000000      0.610313350000000
Si      1.556061070000000      0.873977690000000      2.641101190000000
C       3.138617860000000      1.785967520000000      3.189130210000000
Si      1.507283760000000      2.674119000000000     -0.147432680000000
C       3.084465390000000      3.522868470000000      0.628502730000000
Si      2.892901250000000      3.492575700000000      2.519592980000000
C       4.553262830000000      4.351666140000000      3.031355880000000
Si      3.221475060000000      5.145229930000000      0.058356820000000
C       4.795710610000000      6.186776040000000      0.554566910000000
Si      4.739048700000000      6.178627650000000      2.530938590000000
C       6.206540060000000      7.000196380000000      3.201478280000000
Si      3.062712770000000      0.003215600000000      0.105803660000000
C       4.547357280000000      0.954588690000000      0.678922640000000
Si      4.722290380000000      1.160694460000000      2.641896560000000
C       6.172586150000000      1.852421130000000      3.174638360000000
Si      4.661596190000000      2.658085850000000      0.062201630000000
C       6.230784360000000      3.616180360000000      0.594830470000000
Si      6.100335850000000      3.586335290000000      2.558155190000000
C       7.639030690000000      4.436222480000000      3.345011330000000
Si      6.231001150000000      5.399352850000000     -0.005051570000000
C       7.794468220000000      6.130784760000000      0.658140620000000
Si      7.858993180000000      6.517505540000000      2.504969320000000
C       9.404145330000000      7.391030060000000      3.079300970000000
Si      6.143962710000000      0.022079900000000      0.064172010000000
C       7.712344990000000      0.860412430000000      0.655211120000000
Si      7.670977130000000      0.850205160000000      2.511879020000000
C       9.339664239999999      1.774130760000000      3.200519010000000
Si      7.784441580000000      2.657858480000000     -0.011211320000000
C       9.213649699999999      3.512864090000000      0.535127700000000
Si      9.016402410000000      3.504452810000000      2.417652660000000
C      10.566143540000001      4.552702750000000      3.121866660000000
Si      9.325674680000001      5.361469180000000      0.045315380000000
C      10.873750129999999      6.234712560000000      0.510498370000000
Si     10.992979810000000      6.380337410000000      2.611586170000000
C      12.541107370000001      7.026661820000000      3.126009030000000
36

Si      0.008824000000000     -0.039232960000000     -0.123843400000000
C       1.614491360000000      0.854473750000000      0.589432130000000
Si      1.589457740000000      0.841263800000000      2.435968380000000
C       3.083665740000000      1.892221810000000      3.138986600000000
Si      1.802295350000000      2.667109500000000      0.054810810000000
C       3.221073190000000      3.548632620000000      0.872037520000000
Si      3.186107650000000      3.765978500000000      2.620233290000000
C       4.723502780000000      4.578766980000000      3.194321730000000
Si      2.921945200000000      5.411751820000000      0.012521960000000
C       4.541103540000000      6.169429050000000      0.472342390000000
Si      4.514607010000000      6.241139220000000      2.440975870000000
C       6.091903010000000      7.043758800000000      3.148599440000000
Si      2.981942400000000     -0.146549980000000     -0.103682400000000
C       4.526596030000000      0.793686470000000      0.512850740000000
Si      4.573833250000000      1.095177790000000      2.365103910000000
C       6.273772510000000      1.798798270000000      3.074109190000000
Si      4.646863560000000      2.713103610000000      0.071601920000000
C       6.284465860000000      3.508721020000000      0.634431010000000
Si      6.263248080000000      3.665990870000000      2.704814010000000
C       7.748697420000000      4.694284600000000      3.282733450000000
Si      6.157959220000000      5.440052460000000     -0.003914890000000
C       7.667433620000000      6.156970250000000      0.597349630000000
Si      7.716693550000000      6.183853420000000      2.415740160000000
C       9.248546559999999      7.101084340000000      3.021704400000000
Si      6.099896300000000      0.082796330000000     -0.008498870000000
C       7.674416100000000      0.816718300000000      0.566438720000000
Si      7.828861250000000      0.761732330000000      2.506748500000000
C       9.125745550000000      1.778444830000000      3.057104810000000
Si      7.795163680000000      2.713455730000000      0.162800870000000
C       9.453655990000000      3.526467270000000      0.754380650000000
Si      9.196809170000000      3.557418240000000      2.676424600000000
C      10.795520840000000      4.408795190000000      3.257235550000000
Si      9.431202040000001      5.240983470000000      0.087357660000000
C      11.037415820000000      6.327331920000000      0.890399090000000
Si     10.865215120000000      6.285957790000000      2.719478680000000
C      12.344464990000001      7.097934290000000      3.251843950000000
36

Si      0.102695370000000     -0.007288740000000     -0.054466110000000
C       1.526147500000000      0.956682050000000      0.870661030000000
Si      1.460333790000000      0.863576320000000      2.754038750000000
C       2.949869440000000      1.851253640000000      3.291017740000000
Si      1.859963790000000      2.738100810000000     -0.002050250000000
C       3.458885760000000      3.455151730000000      0.563279500000000
Si      3.048883630000000      3.454817130000000      2.527344190000000
C       4.793145220000000      4.489995000000000      3.060779130000000
Si      3.371678830000000      5.329913750000000      0.363637680000000
C       4.705241640000000      6.295357480000000      0.939853700000000
Si      4.398518360000000      6.302228100000000      2.859163650000000
C       6.024622750000000      7.235637970000000      3.304851820000000
Si      2.913717960000000     -0.103844530000000     -0.108307480000000
C       4.766520930000000      0.866312490000000      0.631604970000000
Si      4.659079800000000      1.071580180000000      2.579429820000000
C       6.011632840000000      2.233268230000000      3.148746900000000
Si      4.786404440000000      2.568808990000000     -0.237515170000000
C       6.296168650000000      3.568723160000000      0.545323440000000
Si      6.323774690000000      3.636997410000000      2.217336850000000
C       7.594716300000000      4.650834250000000      3.040635690000000
Si      6.264048350000000      5.513794240000000      0.187177560000000
C       7.854951230000000      6.057523470000000      0.472450120000000
Si      7.822054050000000      6.386020230000000      2.707464250000000
C       9.303014910000000      7.481369040000000      3.418797170000000
Si      6.159805170000000     -0.186376610000000     -0.143839400000000
C       7.576796030000000      0.717616460000000      0.570241690000000
Si      7.610124060000000      0.894236620000000      2.378834050000000
C       9.252528190000000      1.784384890000000      2.932296730000000
Si      7.729165700000000      2.543939430000000     -0.087012170000000
C       9.255085250000000      3.321387290000000      0.469089200000000
Si      9.277641670000000      3.543255160000000      2.310298960000000
C      10.669510920000000      4.500860110000000      3.052438850000000
Si      9.353951690000001      5.142837170000000      0.178160520000000
C      10.793169340000000      6.196470480000000      0.664105210000000
Si     10.632645730000000      6.452881220000000      2.663641940000000
C      12.171854010000001      7.220546850000000      3.202876970000000
36

Si      0.005030380000000      0.008334870000000      0.116833900000000
C       1.485402850000000      0.946816530000000      0.724497670000000
Si      1.668475730000000      0.831698840000000      2.628418150000000
C       3.165704110000000      1.801461120000000      3.169142470000000
Si      1.566437710000000      2.614247190000000     -0.013220740000000
C       2.990273580000000      3.603282210000000      0.610723360000000
Si      3.121518570000000      3.589582080000000      2.573542540000000
C       4.638153880000000      4.351384240000000      3.229389070000000
Si      3.153787940000000      5.301190880000000      0.061446120000000
C       4.653995710000000      6.235263930000000      0.646035790000000
Si      4.746080330000000      6.284047100000000      2.599709550000000
C       6.234730790000000      7.163276850000000      3.240778080000000
Si      2.993127430000000      0.080739880000000      0.083774620000000
C       4.567397870000000      0.899509900000000      0.630118690000000
Si      4.684664060000000      0.920019990000000      2.553248650000000
C       6.178131400000000      1.867584360000000      3.164026150000000
Si      4.518219630000000      2.738428330000000     -0.049430350000000
C       6.144089980000000      3.606914870000000      0.569175800000000
Si      6.217544060000000      3.599021330000000      2.418375590000000
C       7.781677750000000      4.507124480000000      3.109443760000000
Si      6.193413760000000      5.371727280000000     -0.125957670000000
C       7.700814440000000      6.246446050000000      0.648885760000000
Si      7.706641760000000      6.347358810000000      2.565419920000000
C       9.316546920000000      7.151566280000000      3.079533790000000
Si      6.105743930000000      0.034339690000000     -0.015604880000000
C       7.698831980000000      0.939039350000000      0.626372750000000
Si      7.803907100000000      0.906193860000000      2.517292540000000
C       9.279224630000000      1.686418810000000      3.225868130000000
Si      7.722193980000000      2.650688730000000      0.012719600000000
C       9.316871170000001      3.554927910000000      0.619138780000000
Si      9.340646610000000      3.566730500000000      2.560842800000000
C      10.816332780000000      4.420400530000000      3.217273830000000
Si      9.259910980000001      5.328217210000000      0.042902390000000
C      10.842848470000000      6.282574900000000      0.563513950000000
Si     10.876988500000000      6.192107720000000      2.542586590000000
C      12.403642450000000      7.106829720000000      3.152923260000000
36

Si      0.036855990000000      0.050477280000000     -0.052556840000000
C       1.478712630000000      0.881940680000000      0.661455740000000
Si      1.608126770000000      0.868057520000000      2.564670280000000
C       3.184659710000000      1.846006910000000      3.058848980000000
Si      1.572932380000000      2.654169460000000     -0.028648250000000
C       3.057056580000000      3.637089100000000      0.646072200000000
Si      3.115357040000000      3.634881370000000      2.487811730000000
C       4.684416170000000      4.454844650000000      3.099679600000000
Si      3.035115730000000      5.332747590000000     -0.010515180000000
C       4.576595710000000      6.257637970000000      0.527053030000000
Si      4.561842830000000      6.255994320000000      2.477911340000000
C       6.050696070000000      7.129818590000000      3.212498500000000
Si      3.072741420000000     -0.047539180000000      0.050286230000000
C       4.588424230000000      0.930976660000000      0.636371900000000
Si      4.783531620000000      0.958023340000000      2.464636920000000
C       6.203306400000000      1.753251770000000      3.175721940000000
Si      4.632058350000000      2.682737090000000      0.096745760000000
C       6.156279570000000      3.630367670000000      0.713061780000000
Si      6.255505020000000      3.565675300000000      2.589049340000000
C       7.818296500000000      4.445238720000000      3.236933080000000
Si      6.139429920000000      5.294654500000000     -0.025625770000000
C       7.628816400000000      6.247835260000000      0.675361440000000
Si      7.684355810000000      6.211099780000000      2.610600230000000
C       9.304004830000000      7.089092300000000      3.252799170000000
Si      6.212205200000000      0.029992790000000     -0.070745210000000
C       7.745215640000000      0.925790540000000      0.644767240000000
Si      7.744191720000000      0.890454700000000      2.487092010000000
C       9.368838269999999      1.795831500000000      3.171957250000000
Si      7.763891730000000      2.750516930000000      0.002109060000000
C       9.243314440000001      3.484598620000000      0.729625980000000
Si      9.354621090000000      3.529262680000000      2.581387860000000
C      10.865696800000000      4.529744630000000      3.195953460000000
Si      9.302520250000001      5.341702150000000      0.091154800000000
C      10.810522830000000      6.295067840000000      0.702368550000000
Si     10.820937369999999      6.318243080000000      2.618572870000000
C      12.422020570000001      7.137460540000000      3.211248510000000
36

Si      0.052604320000000      0.176168980000000      0.160314600000000
C       1.508167420000000      0.866674660000000      0.851992490000000
Si      1.710730350000000      0.827946440000000      2.734539090000000
C       3.212905680000000      2.046035070000000      3.230681590000000
Si      1.398844170000000      2.649829580000000      0.052167120000000
C       3.052818040000000      3.477010860000000      0.756935960000000
Si      3.391094090000000      3.676532780000000      2.555660310000000
C       4.907899810000000      4.416207090000000      3.244163900000000
Si      2.942223960000000      5.351055590000000      0.184487550000000
C       4.629999010000000      6.132072430000000      1.014421760000000
Si      4.734210300000000      6.346512110000000      2.779329340000000
C       6.306420350000000      7.169031820000000      3.513803870000000
Si      2.932411570000000      0.095170190000000      0.047458740000000
C       4.842269730000000      0.835359770000000      0.511312310000000
Si      4.634186740000000      0.993878600000000      2.335145450000000
C       6.306533670000000      1.778002800000000      3.240046400000000
Si      4.598160660000000      2.430876050000000     -0.109597850000000
C       6.257651010000000      3.640571000000000      0.415700800000000
Si      6.327997980000000      3.466784180000000      2.221209140000000
C       7.904943170000000      4.561457390000000      3.116683480000000
Si      6.241801250000000      5.609884490000000      0.010986490000000
C       7.521538500000000      6.410627980000000      0.753686490000000
Si      7.882444170000000      6.389062420000000      2.568192340000000
C       9.293557090000000      7.456040660000000      3.088679260000000
Si      6.183154650000000     -0.102538960000000     -0.079626890000000
C       7.729988340000000      0.735085140000000      0.420148560000000
Si      7.544374740000000      0.859344780000000      2.502028860000000
C       9.171965990000000      1.599271900000000      3.073643270000000
Si      7.666039530000000      2.797559590000000     -0.196178180000000
C       9.198602140000000      3.700023210000000      0.354474060000000
Si      9.303573050000001      3.336246030000000      2.463251620000000
C      10.833584200000001      4.352695180000000      3.070859720000000
Si      9.146434270000000      5.436604280000000     -0.095926380000000
C      10.469373590000000      6.176613670000000      0.790420700000000
Si     10.883579940000001      6.028514930000000      2.751646340000000
C      12.324758980000000      7.006916200000000      3.218349220000000
36

Si      0.081171140000000     -0.095804430000000      0.151966990000000
C       1.534491110000000      0.951188860000000      0.796240240000000
Si      1.480392200000000      0.996052780000000      2.748385390000000
C       3.109020460000000      1.759645810000000      3.308476760000000
Si      1.276285420000000      2.583602200000000     -0.125012750000000
C       2.978181510000000      3.494254980000000      0.657638840000000
Si      3.064901090000000      3.479882890000000      2.533916770000000
C       4.572568630000000      4.524872250000000      3.011478240000000
Si      3.168404420000000      5.205043440000000      0.024919730000000
C       4.698585990000000      6.239766740000000      0.515210470000000
Si      4.640643070000000      6.372742080000000      2.437739840000000
C       6.407466320000000      7.242663320000000      3.012432800000000
Si      3.121647330000000      0.051794060000000      0.071845640000000
C       4.774758180000000      0.932302450000000      0.606857460000000
Si      4.624633000000000      0.914569180000000      2.482164510000000
C       6.233519730000000      1.727138280000000      3.205589260000000
Si      4.552163280000000      2.835740480000000     -0.170741300000000
C       6.334867010000000      3.592058610000000      0.690641280000000
Si      6.271789440000000      3.684132860000000      2.549461120000000
C       7.745542420000000      4.443827030000000      3.086690250000000
Si      6.381583860000000      5.411010450000000      0.124349730000000
C       7.788780440000000      6.338501600000000      0.602685050000000
Si      7.837052640000000      6.302143360000000      2.592877290000000
C       9.405744139999999      7.248828410000000      3.204789120000000
Si      6.151389790000000     -0.090241720000000      0.024907120000000
C       7.634388150000000      0.753026710000000      0.626819980000000
Si      7.648841710000000      0.905892370000000      2.509465410000000
C       9.267386580000000      1.866987320000000      3.169165580000000
Si      7.569054080000000      2.526470930000000      0.028905300000000
C       9.166011760000000      3.492484480000000      0.625367880000000
Si      9.267890230000001      3.558291220000000      2.485770310000000
C      10.830293220000000      4.626651690000000      3.192267370000000
Si      9.249680110000000      5.332296800000000      0.056740780000000
C      10.967324959999999      6.235567490000000      0.756902360000000
Si     10.946957640000001      6.219421260000000      2.542367510000000
C      12.583804330000000      7.302390550000000      3.164298990000000
36

Si     -0.032945970000000     -0.144750830000000      0.090844880000000
C       1.594067400000000      0.766846300000000      0.558288040000000
Si      1.583845680000000      0.925733430000000      2.555075110000000
C       2.970682570000000      1.841083820000000      3.247347190000000
Si      1.389638380000000      2.505005870000000     -0.017908640000000
C       2.974275540000000      3.499642130000000      0.599185880000000
Si      2.998771080000000      3.565332650000000      2.551044200000000
C       4.622193870000000      4.589720770000000      3.156418930000000
Si      3.218812720000000      5.380606320000000     -0.038103200000000
C       4.680070930000000      6.168412780000000      0.773339840000000
Si      4.626147610000000      6.299815870000000      2.579718450000000
C       6.425873480000000      7.235465030000000      3.172082030000000
Si      3.234822590000000     -0.111119720000000      0.118826290000000
C       4.707262420000000      1.047467580000000      0.806002520000000
Si      4.472740840000000      0.934736270000000      2.660663210000000
C       6.290403250000000      1.822337870000000      3.333112410000000
Si      4.495131000000000      2.803970130000000     -0.127658100000000
C       5.931932460000000      3.631007530000000      0.507063140000000
Si      6.231845890000000      3.449331380000000      2.464834580000000
C       7.764911550000000      4.543441350000000      3.012385040000000
Si      6.367737800000000      5.520801450000000      0.108174460000000
C       8.076152349999999      6.403298530000000      0.804480160000000
Si      7.835955040000000      6.280052910000000      2.518571490000000
C       9.253266130000000      7.062979170000000      3.291017540000000
Si      6.154539720000000      0.156762000000000      0.057899930000000
C       7.742941410000000      0.913090740000000      0.729053360000000
Si      7.843044890000000      0.949154440000000      2.568360640000000
C       9.309144999999999      1.962681810000000      3.298944480000000
Si      7.565441970000000      2.503999900000000     -0.109371730000000
C       9.234230280000000      3.508223430000000      0.597344820000000
Si      9.371153030000000      3.567000900000000      2.483651780000000
C      10.716688919999999      4.493459880000000      3.128321520000000
Si      9.411597329999999      5.168038950000000     -0.063408520000000
C      10.956996780000001      6.326121640000000      0.723826820000000
Si     10.797705620000000      6.293002120000000      2.362712110000000
C      12.240309540000000      7.297255800000000      3.211102130000000
36

Si      0.173289990000000      0.257726090000000      0.026766470000000
C       1.621684240000000      1.001368690000000      0.745502230000000
Si      1.733078390000000      0.961661940000000      2.690741520000000
C       3.338775540000000      1.888942220000000      3.125207860000000
Si      1.414263670000000      2.675938280000000      0.186370040000000
C       3.033722360000000      3.397732770000000      0.699526080000000
Si      3.134200150000000      3.401470590000000      2.445126140000000
C       4.526430710000000      4.367547450000000      3.197047560000000
Si      3.051544780000000      5.538047080000000      0.018414020000000
C       4.697378000000000      6.525031440000000      0.634501330000000
Si      4.857061550000000      6.112322010000000      2.469437850000000
C       6.232764210000000      7.192417860000000      3.185596940000000
Si      3.173817900000000     -0.159493710000000     -0.059151350000000
C       4.608926470000000      0.790057720000000      0.657012410000000
Si      4.827117110000000      0.850792000000000      2.557747430000000
C       6.492380960000000      1.623533410000000      3.163706360000000
Si      4.491752470000000      2.541129390000000     -0.111455170000000
C       5.938281850000000      3.508325260000000      0.644868490000000
Si      6.163020010000000      3.590302990000000      2.681917260000000
C       7.667733570000000      4.304972880000000      3.137093030000000
Si      6.113382780000000      5.167241430000000      0.012643960000000
C       7.575949680000000      6.146742500000000      0.627853580000000
Si      7.533338530000000      6.390967090000000      2.510612250000000
C       9.274605610000000      7.214394110000000      3.001356070000000
Si      6.179808950000000      0.170252240000000      0.037033680000000
C       7.954386230000000      1.090038010000000      0.828527230000000
Si      8.076316770000000      0.816776150000000      2.734529600000000
C       9.395699420000000      1.866409350000000      3.334852290000000
Si      7.517189190000000      2.670727000000000     -0.160022650000000
C       9.094065210000000      3.511323760000000      0.498769170000000
Si      9.410493330000000      3.643045630000000      2.479074690000000
C      10.809439590000000      4.451659780000000      3.091337130000000
Si      9.083491900000000      5.408484600000000     -0.010917040000000
C      10.647364350000000      6.392074850000000      0.441269180000000
Si     10.702484280000000      6.343017090000000      2.593747380000000
C      12.418913600000000      7.061459830000000      3.143327020000000
36

Si     -0.125910640000000     -0.184743600000000     -0.032170510000000
C       1.350083220000000      0.714624370000000      0.628000760000000
Si      1.594888220000000      0.798164580000000      2.510154510000000
C       3.056648820000000      1.757824240000000      3.062389860000000
Si      1.380290750000000      2.623960090000000     -0.047565480000000
C       2.920422790000000      3.569130570000000      0.658922160000000
Si      2.996269940000000      3.496700410000000      2.503420570000000
C       4.582676770000000      4.528618970000000      3.050899090000000
Si      3.171016610000000      5.306690910000000     -0.004778430000000
C       4.642448450000000      6.154814430000000      0.544264040000000
Si      4.573609390000000      6.247494560000000      2.514710020000000
C       6.173985810000000      7.103636740000000      3.075572330000000
Si      3.096887710000000      0.118698680000000      0.092383840000000
C       4.840645770000000      1.125995490000000      0.658098040000000
Si      4.866670690000000      0.917435050000000      2.481128370000000
C       6.193570780000000      1.953142680000000      3.252290230000000
Si      4.660717910000000      2.712997160000000     -0.021674280000000
C       6.142528370000000      3.611366150000000      0.527131210000000
Si      6.188759330000000      3.831701060000000      2.612243620000000
C       7.906751330000000      4.551093520000000      3.165755700000000
Si      6.354916330000000      5.208675090000000     -0.118515660000000
C       7.825379710000000      6.326042250000000      0.651459460000000
Si      7.712753880000000      6.245584290000000      2.404009120000000
C       9.280382830000001      7.158008890000000      3.096245580000000
Si      6.182374550000000     -0.070832550000000      0.130885610000000
C       7.716317640000000      0.790558070000000      0.432484350000000
Si      7.774705640000000      0.928235770000000      2.500651220000000
C       9.071570670000000      1.796749330000000      3.272396990000000
Si      7.770827010000000      2.805040250000000      0.150734890000000
C       9.295627919999999      3.561787610000000      0.756442930000000
Si      9.286253680000000      3.698091300000000      2.706799730000000
C      10.840761920000000      4.515555550000000      3.263951960000000
Si      9.348666840000000      5.317490810000000      0.083630520000000
C      10.846623129999999      6.252178700000000      0.672941230000000
Si     10.894879120000001      6.241476890000000      2.653741090000000
C      12.424787260000000      7.184532820000000      3.347952920000000
36

Si      0.042359570000000     -0.016019380000000      0.066302030000000
C       1.634495750000000      0.906049230000000      0.728609050000000
Si      1.645338620000000      0.912625610000000      2.647845840000000
C       3.109981880000000      1.953555700000000      3.258092320000000
Si      1.596838600000000      2.650001980000000      0.023745820000000
C       3.137250840000000      3.548317600000000      0.702050230000000
Si      3.130115140000000      3.593227430000000      2.590289790000000
C       4.619706730000000      4.459171140000000      3.202200590000000
Si      3.101302580000000      5.370926910000000     -0.074511570000000
C       4.590711010000000      6.251034610000000      0.698500950000000
Si      4.688467380000000      6.227027300000000      2.625748250000000
C       6.216736080000000      7.161816750000000      3.153484980000000
Si      3.077780700000000      0.063546810000000     -0.044931750000000
C       4.569678590000000      0.978333130000000      0.717736510000000
Si      4.640523080000000      0.942791270000000      2.606141540000000
C       6.180714810000000      1.837413310000000      3.127025240000000
Si      4.572268590000000      2.692655440000000      0.000896830000000
C       6.089806600000000      3.577169310000000      0.620783840000000
Si      6.176524060000000      3.627756590000000      2.480514940000000
C       7.800622870000000      4.458131830000000      3.187045540000000
Si      6.098194600000000      5.358672770000000      0.054253250000000
C       7.707434090000000      6.246818960000000      0.547261130000000
Si      7.822782940000000      6.188712910000000      2.411014500000000
C       9.301218220000001      7.216449290000000      3.198370000000000
Si      6.130480580000000     -0.063144240000000     -0.002137060000000
C       7.695529590000000      0.911875130000000      0.621140710000000
Si      7.743074170000000      0.921688330000000      2.505226460000000
C       9.250245380000001      1.693253470000000      3.228270200000000
Si      7.682364750000000      2.678511130000000      0.018648920000000
C       9.210679910000000      3.523256690000000      0.666371810000000
Si      9.313902329999999      3.532880780000000      2.417531110000000
C      10.814077010000000      4.479926280000000      3.118830760000000
Si      9.299884949999999      5.303800190000000      0.044462880000000
C      10.883611309999999      6.231290340000000      0.670218260000000
Si     10.928566430000000      6.273678330000000      2.523455360000000
C      12.387119269999999      7.183263630000000      3.198009430000000
36

Si     -0.322004600000000      0.148195510000000     -0.250717820000000
C       1.409635690000000      0.997618520000000      0.274222240000000
Si      1.505457500000000      0.791861490000000      2.458209400000000
C       3.023654310000000      1.640854770000000      3.009266250000000
Si      1.373752870000000      2.747763440000000     -0.101802990000000
C       3.241760630000000      3.823901600000000      0.593728680000000
Si      3.064418050000000      3.461247420000000      2.508223160000000
C       4.839356060000000      4.365852330000000      3.121849050000000
Si      3.181559710000000      5.456619630000000     -0.236356110000000
C       4.736513610000000      6.230164490000000      0.380509600000000
Si      4.466836930000000      6.114383260000000      2.166533140000000
C       6.090654110000000      6.788336800000000      3.079048450000000
Si      2.923881620000000     -0.009050570000000      0.089037750000000
C       4.460066940000000      0.896212760000000      0.593896610000000
Si      4.632431890000000      1.024728060000000      2.361029630000000
C       6.246065630000000      1.554942130000000      3.048648410000000
Si      4.648166140000000      2.733287490000000      0.048544630000000
C       6.219940380000000      3.766646220000000      0.891793710000000
Si      6.318219160000000      3.606354040000000      2.704067680000000
C       7.895064380000000      4.480865310000000      3.172276100000000
Si      6.279155370000000      5.389567350000000      0.104119950000000
C       7.713377760000000      6.285493530000000      0.827800580000000
Si      7.863442150000000      6.146214730000000      2.572941960000000
C       9.350564049999999      7.033206150000000      3.207841140000000
Si      6.038030880000000     -0.097837620000000      0.072145600000000
C       7.748172810000000      1.010977530000000      0.663601360000000
Si      7.776532360000000      0.906827480000000      2.547196980000000
C       9.442252170000000      1.742994110000000      3.363756270000000
Si      7.755067100000000      2.802438610000000      0.278695210000000
C       9.176642709999999      3.746202720000000      0.850325950000000
Si      9.549714330000000      3.752491700000000      2.834720730000000
C      11.139600300000000      4.402673090000000      3.384402270000000
Si      9.193223720000001      5.421523700000000      0.009711220000000
C      11.017979670000001      6.284131500000000      0.774740890000000
Si     11.037747850000001      6.073597050000000      2.807045900000000
C      12.395654349999999      7.072966260000000      3.221920450000000
36

Si      0.009397160000000      0.154739400000000      0.024237730000000
C       1.557174030000000      0.873287090000000      0.590769960000000
Si      1.551316210000000      0.923325760000000      2.559664190000000
C       2.906933270000000      1.980535920000000      3.191626280000000
Si      1.607179970000000      2.687182490000000     -0.157016020000000
C       3.015252480000000      3.680453580000000      0.498620600000000
Si      3.095542680000000      3.668204210000000      2.428497600000000
C       4.716708300000000      4.325941460000000      3.106581910000000
Si      3.089684790000000      5.486596600000000      0.173223480000000
C       4.699535210000000      6.449372570000000      0.949934640000000
Si      4.679560700000000      6.320552670000000      2.638496370000000
C       6.263194450000000      7.250231930000000      3.226478930000000
Si      3.132413110000000     -0.114006320000000      0.069005270000000
C       4.764841270000000      1.023573690000000      0.783148480000000
Si      4.584480320000000      0.943748030000000      2.631120740000000
C       6.204966130000000      1.651499390000000      3.300761820000000
Si      4.761965450000000      2.623616730000000     -0.059925300000000
C       6.064002510000000      3.552571120000000      0.665606010000000
Si      6.347479100000000      3.383601130000000      2.476814200000000
C       7.865708040000000      4.185318180000000      3.172673740000000
Si      6.101619240000000      5.313635430000000      0.124190390000000
C       7.714020240000000      6.209090390000000      0.692925490000000
Si      7.661767450000000      6.020753620000000      2.656261330000000
C       9.137628210000001      7.071247010000000      3.349442590000000
Si      6.279431010000000     -0.063783410000000     -0.131435550000000
C       7.819641130000000      0.901767780000000      0.764159080000000
Si      7.760290300000000      0.765083670000000      2.551807070000000
C       9.396387630000000      1.868561930000000      3.130888920000000
Si      7.717389650000000      2.678035390000000     -0.044503420000000
C       9.374353290000000      3.585736890000000      0.540506590000000
Si      9.327704320000000      3.661335440000000      2.422455300000000
C      10.760888960000001      4.654422650000000      3.164576900000000
Si      9.156159900000000      5.405652900000000     -0.031539250000000
C      10.693731160000000      6.247964300000000      0.638255460000000
Si     10.747484170000000      6.413784240000000      2.451618160000000
C      12.431493260000000      7.075812230000000      3.137824370000000
36

Si      0.231849090000000     -0.065769050000000      0.293945440000000
C       1.796673720000000      0.976590840000000      0.874974850000000
Si      1.700288870000000      0.942283580000000      2.666974350000000
C       3.143108540000000      1.860462090000000      3.419503540000000
Si      1.845656670000000      2.696222460000000      0.019997900000000
C       3.203272790000000      3.560292690000000      0.623861770000000
Si      2.888298380000000      3.632235490000000      2.743794350000000
C       4.602618110000000      4.511299990000000      3.138585420000000
Si      3.005423620000000      5.438868320000000      0.332221750000000
C       4.653894560000000      6.256074130000000      0.893903470000000
Si      4.560333900000000      6.359329120000000      2.682690180000000
C       6.206654040000000      7.193612170000000      3.364200850000000
Si      3.137613770000000      0.145997980000000      0.127540750000000
C       4.640548610000000      1.208793540000000      0.568333620000000
Si      4.696457540000000      0.897185050000000      2.431288960000000
C       6.249584610000000      1.736012050000000      3.271192420000000
Si      4.826280330000000      2.665694460000000     -0.245885140000000
C       6.322234310000000      3.443852690000000      0.634299620000000
Si      5.994218480000000      3.518423450000000      2.390271680000000
C       7.607817270000000      4.399709370000000      2.957420430000000
Si      6.241654920000000      5.369041020000000     -0.109961480000000
C       7.811518160000000      6.393883960000000      0.589488600000000
Si      7.600486430000000      6.287319990000000      2.422248850000000
C       9.311624520000001      7.186992290000000      3.064369100000000
Si      6.214039690000000     -0.047203270000000     -0.061816230000000
C       7.682069550000000      0.461074350000000      0.771442230000000
Si      7.831614630000000      0.920798110000000      2.516344720000000
C       9.391145260000000      1.805125890000000      2.841261680000000
Si      7.834622520000000      2.491546770000000     -0.164246960000000
C       9.310451520000001      3.471316090000000      0.447954650000000
Si      9.226818809999999      3.471638000000000      2.281983410000000
C      10.668363449999999      4.439976380000000      3.058702510000000
Si      9.092012140000000      5.292810790000000      0.098775890000000
C      10.716883240000000      6.300755510000000      0.624000040000000
Si     10.595749090000000      6.265804090000000      2.523925700000000
C      12.272475119999999      7.357787210000000      3.370503510000000
36

Si     -0.091247870000000      0.078595210000000     -0.207602560000000
C       1.390419500000000      0.857151680000000      0.596558910000000
Si      1.583200330000000      0.869175400000000      2.514981240000000
C       3.270186060000000      1.786070030000000      2.883474580000000
Si      1.570423250000000      2.683645600000000      0.089446220000000
C       3.198083100000000      3.533696890000000      0.635569460000000
Si      3.159351250000000      3.675752610000000      2.538095020000000
C       4.847719110000000      4.654369990000000      3.163415760000000
Si      3.022385930000000      5.272546100000000      0.048929540000000
C       4.722854440000000      6.217228990000000      0.639207280000000
Si      4.549758960000000      6.424083100000000      2.622202780000000
C       5.999793880000000      7.188985840000000      3.178987890000000
Si      2.938990790000000      0.017227950000000     -0.074510530000000
C       4.632141230000000      0.758758360000000      0.540811130000000
Si      4.573379120000000      0.725561080000000      2.457539840000000
C       6.227364220000000      1.766482230000000      2.963422550000000
Si      4.718692980000000      2.565707630000000     -0.034411770000000
C       6.218691060000000      3.578383370000000      0.682785920000000
Si      6.388298640000000      3.624062370000000      2.527157190000000
C       7.825828410000000      4.355264250000000      3.136965490000000
Si      6.185952440000000      5.345489940000000      0.159825700000000
C       7.688301970000000      6.337548670000000      0.790427030000000
Si      7.489590050000000      6.301479400000000      2.579776150000000
C       9.180112290000000      7.106380890000000      3.282487250000000
Si      6.202683360000000     -0.080444960000000      0.031804990000000
C       7.686373390000000      0.842864330000000      0.561664780000000
Si      7.854605360000000      0.819024490000000      2.468468860000000
C       9.515266960000000      1.891400450000000      3.397744330000000
Si      7.918443640000000      2.657949670000000      0.155862290000000
C       9.305761860000000      3.631244470000000      0.723720890000000
Si      9.310905220000000      3.541996720000000      2.648172910000000
C      11.014182529999999      4.548800760000000      3.191426250000000
Si      9.303692090000000      5.522692390000000     -0.028997560000000
C      10.882889080000000      6.284490170000000      0.586993330000000
Si     10.752233609999999      6.237258870000000      2.597534040000000
C      12.200279719999999      7.225478480000000      3.221196690000000
36

Si      0.123983980000000     -0.067863970000000      0.295256460000000
C       1.471290060000000      0.847878120000000      0.861465830000000
Si      1.901862290000000      0.904276960000000      2.729928630000000
C       3.269597660000000      1.703115870000000      3.477041100000000
Si      1.516278190000000      2.683623280000000      0.062868660000000
C       3.139635110000000      3.428958110000000      0.836372450000000
Si      3.034860740000000      3.588318840000000      2.647812620000000
C       4.581087120000000      4.608357990000000      3.240771790000000
Si      3.060499310000000      5.528480240000000      0.256174020000000
C       4.571808790000000      6.378714470000000      0.803451380000000
Si      4.790117860000000      6.418741500000000      2.674991560000000
C       6.308176840000000      7.285213650000000      3.394061700000000
Si      3.171409920000000      0.071309450000000     -0.027057630000000
C       4.674806910000000      0.952032050000000      0.752684070000000
Si      4.794512390000000      0.745766870000000      2.568423900000000
C       6.253124440000000      1.857011240000000      3.149212920000000
Si      4.634549690000000      2.522870510000000     -0.164504990000000
C       6.388828830000000      3.613160170000000      0.676596670000000
Si      6.039709930000000      3.609460510000000      2.477679040000000
C       7.710724920000000      4.336235780000000      3.059665130000000
Si      6.068084260000000      5.263072730000000      0.047069120000000
C       7.759305100000000      6.272758680000000      0.685336890000000
Si      7.763771930000000      6.271217740000000      2.440207530000000
C       9.329571440000000      7.068874270000000      3.193098900000000
Si      6.143703140000000      0.044166400000000     -0.059857420000000
C       7.770247410000000      0.748944410000000      0.652517980000000
Si      7.794467480000000      0.854592450000000      2.462326610000000
C       9.514339970000000      1.804400160000000      3.160174660000000
Si      7.545570610000000      2.578701060000000     -0.379061760000000
C       9.145635340000000      3.573284640000000      0.347638690000000
Si      9.254894269999999      3.611704390000000      2.343390290000000
C      10.785698090000000      4.325597130000000      2.962594190000000
Si      9.112382630000001      5.352710750000000     -0.107478680000000
C      10.467720549999999      6.227320040000000      0.554232950000000
Si     10.739097920000001      6.412541230000000      2.490900560000000
C      12.528051899999999      7.271115170000000      3.153759030000000
36

Si     -0.062395960000000     -0.007511280000000     -0.099024440000000
C       1.497439790000000      0.824793070000000      0.511204990000000
Si      1.561140500000000      0.911705150000000      2.435398640000000
C       3.063819880000000      1.822406290000000      3.060519090000000
Si      1.534051920000000      2.705100420000000     -0.067643740000000
C       3.048630280000000      3.603721760000000      0.608502340000000
Si      3.122258730000000      3.583096370000000      2.504119960000000
C       4.660066960000000      4.457780310000000      3.183940420000000
Si      3.124534930000000      5.333435760000000     -0.036118690000000
C       4.571055880000000      6.276900980000000      0.544142320000000
Si      4.637949620000000      6.240379750000000      2.610591520000000
C       6.160010860000000      7.155132730000000      3.141699290000000
Si      3.167327490000000     -0.044247160000000     -0.067947910000000
C       4.635010350000000      0.888838030000000      0.664656120000000
Si      4.657587010000000      0.893848060000000      2.595590730000000
C       6.231416050000000      1.723250330000000      3.134192570000000
Si      4.653862690000000      2.731608690000000      0.087309580000000
C       6.212171590000000      3.557218050000000      0.748889280000000
Si      6.220661360000000      3.559354840000000      2.587680910000000
C       7.733470080000000      4.409364890000000      3.242191350000000
Si      6.109047920000000      5.349590800000000      0.134685770000000
C       7.751311110000000      6.357414800000000      0.687082930000000
Si      7.722765670000000      6.223084410000000      2.550364310000000
C       9.301696840000000      7.142261040000000      3.243963880000000
Si      6.233509640000000     -0.004588790000000      0.038890570000000
C       7.729826750000000      0.892199900000000      0.640468040000000
Si      7.806267520000000      0.911723250000000      2.527274850000000
C       9.315655710000000      1.897955960000000      3.231719930000000
Si      7.789539950000000      2.670961020000000      0.090747970000000
C       9.236124080000000      3.578748710000000      0.746719700000000
Si      9.312284220000000      3.635561150000000      2.555295740000000
C      10.965896330000000      4.477127400000000      3.148188790000000
Si      9.233544220000001      5.410186990000000      0.023318990000000
C      10.761879459999999      6.252742110000000      0.661879650000000
Si     10.841889620000000      6.229095340000000      2.547382490000000
C      12.382460240000000      7.128468700000000      3.155445830000000
36

Si     -0.115579280000000     -0.169459230000000      0.086856910000000
C       1.429804020000000      0.915844160000000      0.532581690000000
Si      1.596543440000000      0.849039080000000      2.444541100000000
C       3.051677800000000      1.855346470000000      3.165117670000000
Si      1.821716620000000      2.540147650000000     -0.086681880000000
C       3.339937290000000      3.532264350000000      0.825894840000000
Si      3.214713690000000      3.623564440000000      2.733467460000000
C       4.770412390000000      4.496749950000000      3.042452310000000
Si      3.195272920000000      5.407193770000000      0.034340160000000
C       4.630498780000000      6.407647720000000      0.900262950000000
Si      4.553353060000000      6.388965130000000      2.836183400000000
C       6.372922930000000      7.140665550000000      3.310920270000000
Si      3.017104590000000      0.209041810000000      0.081135660000000
C       4.639374360000000      1.140359770000000      0.549785420000000
Si      4.464701270000000      0.878028770000000      2.404504760000000
C       5.997962050000000      1.854255270000000      3.073537530000000
Si      4.846933160000000      2.918642630000000     -0.032008430000000
C       6.286259360000000      3.790873870000000      0.312793720000000
Si      6.290404980000000      3.482153360000000      2.330849680000000
C       7.759638580000000      4.254236110000000      3.233572710000000
Si      6.282611570000000      5.553953420000000      0.114307600000000
C       7.759157450000000      6.557814410000000      0.763575900000000
Si      7.830204360000000      6.267409050000000      2.536078380000000
C       9.251553550000001      7.195269450000000      3.109320830000000
Si      5.988331560000000     -0.102468410000000     -0.113552660000000
C       7.782935260000000      0.803443080000000      0.565460090000000
Si      7.274898390000000      0.836198120000000      2.402264280000000
C       8.970529109999999      1.490199770000000      3.152523870000000
Si      7.947321560000000      2.630592320000000     -0.140377720000000
C       9.497430789999999      3.528087680000000      0.432283340000000
Si      9.299312380000000      3.335407490000000      2.703785690000000
C      10.741662740000001      4.453627390000000      3.229606700000000
Si      9.307042890000000      5.450995500000000     -0.019116790000000
C      10.670388839999999      6.117669890000000      0.746778850000000
Si     10.833491779999999      6.133129580000000      2.834398950000000
C      12.346596090000000      7.145451540000000      3.097803310000000
36

Si     -0.109347270000000      0.040522570000000     -0.024360890000000
C       1.384856500000000      1.008980740000000      0.626632530000000
Si      1.304145160000000      0.851535570000000      2.500310560000000
C       3.032323040000000      1.658297220000000      3.087753600000000
Si      1.535594350000000      2.842504990000000      0.058367960000000
C       3.223381660000000      3.201753720000000      0.700615370000000
Si      3.011379100000000      3.345732930000000      2.385449000000000
C       4.426546390000000      4.562014070000000      3.163823060000000
Si      3.177427630000000      5.362594240000000      0.024025670000000
C       4.721027850000000      6.207845260000000      0.609283050000000
Si      4.771965540000000      6.171699440000000      2.304573130000000
C       6.244002360000000      7.125661170000000      3.136335190000000
Si      3.003300190000000     -0.014065010000000     -0.177332220000000
C       4.611147340000000      0.651645690000000      0.552468930000000
Si      4.506861150000000      0.873926880000000      2.446496500000000
C       6.086312720000000      1.952248200000000      3.052612040000000
Si      4.966075350000000      2.668295510000000      0.027488180000000
C       6.375705790000000      3.578723330000000      0.992802270000000
Si      6.158144490000000      3.830773050000000      2.779047540000000
C       7.839377160000000      4.528544560000000      3.250388470000000
Si      6.431261600000000      5.365309120000000      0.116504670000000
C       7.939844790000000      6.230636960000000      0.717721200000000
Si      7.809518780000000      6.345964440000000      2.640247640000000
C       9.294259960000000      7.246161680000000      3.091167230000000
Si      6.068578230000000     -0.248297530000000     -0.112035390000000
C       7.527596820000000      0.857298260000000      0.620095560000000
Si      7.555199390000000      1.032861820000000      2.465479080000000
C       8.955981550000001      1.859918810000000      3.197227870000000
Si      7.917030030000000      2.538155950000000      0.220367910000000
C       9.486541060000000      3.474399790000000      0.787973900000000
Si      9.388697020000000      3.746263870000000      2.499277250000000
C      10.758702150000000      4.473461890000000      3.317043900000000
Si      9.379621260000000      5.293614260000000      0.097251830000000
C      11.013395170000001      6.219411980000000      0.509383960000000
Si     10.838786389999999      6.457924440000000      2.570472940000000
C      12.223738950000000      7.204952840000000      3.401056520000000
36

Si     -0.004757310000000     -0.075505670000000     -0.075529520000000
C       1.486731230000000      0.939714590000000      0.669146790000000
Si      1.480188230000000      0.852369930000000      2.577009310000000
C       3.007634500000000      1.791598630000000      3.162835320000000
Si      1.494851500000000      2.713136860000000      0.007218400000000
C       3.077711960000000      3.597053730000000      0.642815090000000
Si      3.081142920000000      3.579813250000000      2.546379680000000
C       4.627004360000000      4.490177420000000      3.201136300000000
Si      3.193837910000000      5.370307600000000     -0.047568580000000
C       4.764787260000000      6.210391110000000      0.623091730000000
Si      4.687204790000000      6.196159800000000      2.496036690000000
C       6.173778890000000      7.217623530000000      3.128096760000000
Si      3.016622450000000      0.072383790000000      0.013288200000000
C       4.554307360000000      0.926778810000000      0.608221120000000
Si      4.577515770000000      0.851491790000000      2.540864490000000
C       6.157586300000000      1.820165680000000      3.221333870000000
Si      4.676161830000000      2.724910700000000      0.067977750000000
C       6.204711020000000      3.610687360000000      0.662452680000000
Si      6.150148910000000      3.546037110000000      2.550263950000000
C       7.716138060000000      4.446230480000000      3.221561930000000
Si      6.339818610000000      5.369217580000000     -0.012462100000000
C       7.755504270000000      6.360562000000000      0.659017660000000
Si      7.788562010000000      6.270969530000000      2.593984360000000
C       9.297941860000000      7.153252300000000      3.204163610000000
Si      6.149818330000000     -0.017977010000000     -0.011860220000000
C       7.683874350000000      0.858233610000000      0.625562260000000
Si      7.674748410000000      0.830422730000000      2.512392840000000
C       9.269410680000000      1.728726910000000      3.208400220000000
Si      7.792168920000000      2.576682560000000     -0.070440360000000
C       9.285975669999999      3.650833790000000      0.649535230000000
Si      9.256593479999999      3.591054970000000      2.505072970000000
C      10.811914900000000      4.514189080000000      3.177360370000000
Si      9.390856910000000      5.458639330000000      0.151098050000000
C      10.915914519999999      6.294118240000000      0.765873570000000
Si     10.923014170000000      6.283762370000000      2.559448270000000
C      12.460769940000000      7.159862100000000      3.193107390000000
36

Si      0.077991740000000      0.002329490000000      0.118930960000000
C       1.760335360000000      0.993720640000000      0.700967170000000
Si      1.590737690000000      0.993981990000000      2.452784780000000
C       3.098939790000000      1.782891230000000      3.213447510000000
Si      1.378742360000000      2.565752320000000      0.167006490000000
C       2.821756290000000      3.818867990000000      0.667370060000000
Si      2.946158410000000      3.787982340000000      2.641788530000000
C       4.525721720000000      4.473115200000000      3.168583220000000
Si      3.215813610000000      5.306833940000000     -0.279369930000000
C       4.809634960000000      6.221382830000000      0.534742430000000
Si      4.644105590000000      6.300702550000000      2.335795430000000
C       6.295670770000000      7.093792460000000      2.906255320000000
Si      3.282221450000000     -0.199341490000000     -0.032952440000000
C       4.864265140000000      1.025892160000000      0.708711510000000
Si      4.662859450000000      0.921605780000000      2.673588470000000
C       6.295260990000000      1.893693220000000      3.271536620000000
Si      4.244572520000000      2.658764640000000      0.108326690000000
C       6.037539920000000      3.661670470000000      0.826809360000000
Si      6.076908200000000      3.692092000000000      2.679525560000000
C       7.784265210000000      4.361701470000000      3.432148980000000
Si      6.214503520000000      5.217973290000000     -0.001038450000000
C       7.764356570000000      5.940289430000000      0.450100210000000
Si      7.858858880000000      6.021793140000000      2.384486240000000
C       9.330621499999999      7.149496910000000      3.133363710000000
Si      6.418996170000000      0.236718590000000     -0.060438860000000
C       7.918796370000000      0.902472460000000      0.512864390000000
Si      7.706888920000000      0.814424000000000      2.496021410000000
C       9.371626050000000      1.609206940000000      3.204328720000000
Si      7.572800970000000      2.875253270000000      0.369280820000000
C       9.305352650000000      3.598001670000000      0.687896370000000
Si      9.189943189999999      3.661807630000000      2.706854250000000
C      10.559482879999999      4.566042660000000      3.493972190000000
Si      9.560063540000000      5.376779750000000     -0.223007430000000
C      10.967910920000000      6.236555860000000      0.513882890000000
Si     10.790730670000000      6.111607360000000      2.438183720000000
C      12.291069220000001      7.083214760000000      3.026988100000000
36

Si     -0.008995500000000     -0.079431080000000     -0.138753400000000
C       1.410016030000000      0.905805870000000      0.543243880000000
Si      1.465378220000000      0.933184340000000      2.432624450000000
C       3.115444990000000      1.748742450000000      2.965781240000000
Si      1.513102940000000      2.664325390000000      0.298320800000000
C       3.217798430000000      3.455302000000000      0.727188380000000
Si      3.241409880000000      3.722297650000000      2.611986760000000
C       4.743983870000000      4.587066770000000      3.267438370000000
Si      3.036032060000000      5.341860680000000     -0.024279830000000
C       4.573686160000000      6.195137310000000      0.620865230000000
Si      4.687309790000000      6.300791260000000      2.486237680000000
C       6.247194470000000      7.154570190000000      3.142007340000000
Si      2.994063890000000     -0.036843040000000     -0.082777390000000
C       4.761851350000000      0.789294890000000      0.527377120000000
Si      4.512851880000000      0.745610530000000      2.456360380000000
C       6.156720240000000      1.877494990000000      3.066763820000000
Si      4.729084300000000      2.594729590000000      0.185337860000000
C       6.247510620000000      3.581390400000000      0.637338860000000
Si      6.142540420000000      3.521745990000000      2.574953720000000
C       7.873896930000000      4.503432890000000      3.079117750000000
Si      6.188261590000000      5.389252250000000      0.012490820000000
C       7.767780580000000      6.466137380000000      0.654594300000000
Si      7.683953470000000      6.254039730000000      2.508438540000000
C       9.181010010000000      7.137355570000000      3.090418670000000
Si      6.369221980000000     -0.114225930000000     -0.056534500000000
C       8.009118500000000      0.863178780000000      0.658389900000000
Si      7.694774460000000      0.967698510000000      2.583335540000000
C       9.213661220000001      1.734806620000000      3.097841220000000
Si      7.747127410000000      2.604262700000000      0.104054950000000
C       9.253601950000000      3.625367950000000      0.682509350000000
Si      9.357829539999999      3.683103370000000      2.482121690000000
C      11.050306530000000      4.429959010000000      3.383612190000000
Si      9.193407369999999      5.390573390000000     -0.039522050000000
C      10.832878579999999      6.239008430000000      0.644238820000000
Si     10.784203489999999      6.348475270000000      2.739637590000000
C      12.383109970000000      7.388289470000000      3.295163430000000
36

Si     -0.116263890000000      0.076324570000000     -0.074221340000000
C       1.558455570000000      1.025748970000000      0.653003610000000
Si      1.556191840000000      0.952434960000000      2.515012860000000
C       3.186485240000000      1.678349870000000      3.162293760000000
Si      1.716137070000000      2.738210800000000     -0.028667210000000
C       3.355259640000000      3.610998020000000      0.646288620000000
Si      3.181376590000000      3.784951980000000      2.631145760000000
C       4.691240530000000      4.499561330000000      3.206622370000000
Si      3.129998750000000      5.528894610000000      0.029463870000000
C       4.598347240000000      6.360621680000000      0.764654090000000
Si      4.717096920000000      6.254341000000000      2.577657200000000
C       6.220067470000000      7.198540890000000      3.300525050000000
Si      3.053237820000000     -0.016821270000000     -0.035067590000000
C       4.486533320000000      0.633708500000000      0.627302280000000
Si      4.523690250000000      0.786597390000000      2.419182070000000
C       6.292120700000000      1.679895590000000      3.087567590000000
Si      4.712958400000000      2.623385750000000     -0.048192100000000
C       6.284376290000000      3.484861040000000      0.707277920000000
Si      6.319539450000000      3.487461680000000      2.468851990000000
C       7.594772060000000      4.446647480000000      3.224187820000000
Si      6.144181610000000      5.302476920000000      0.126517270000000
C       7.718118000000000      6.183796430000000      0.736991740000000
Si      7.701478330000000      6.123242040000000      2.707261760000000
C       9.154952700000001      7.106281040000000      3.154098920000000
Si      6.193003270000000      0.087630060000000      0.113683890000000
C       7.707552040000000      1.078722270000000      0.712702000000000
Si      7.750713530000000      0.675046350000000      2.530409300000000
C       9.481201060000000      1.696706870000000      3.211155500000000
Si      7.769641910000000      2.810876360000000     -0.133706010000000
C       9.374005070000001      3.632472020000000      0.622051730000000
Si      9.301951580000001      3.542241150000000      2.401051990000000
C      10.804485710000000      4.574401840000000      3.096052210000000
Si      9.131043560000000      5.309528860000000      0.128294690000000
C      10.801455499999999      6.318498800000000      0.707520840000000
Si     10.680763020000001      6.344902410000000      2.503548920000000
C      12.414042220000001      7.050988540000000      3.169312000000000
36

Si      0.163729010000000     -0.039487640000000     -0.048080300000000
C       1.686226950000000      1.027212460000000      0.789154460000000
Si      1.668939260000000      1.019523450000000      2.554452130000000
C       3.161680650000000      1.926425730000000      3.146260530000000
Si      1.553695190000000      2.775143180000000     -0.067223690000000
C       3.224882030000000      3.523333920000000      0.508755950000000
Si      3.407781060000000      3.568071350000000      2.455911830000000
C       4.790688340000000      4.548181370000000      3.265122380000000
Si      3.144967310000000      5.207347370000000     -0.061916800000000
C       4.708844660000000      6.242858730000000      0.614813340000000
Si      4.454367380000000      6.375678860000000      2.527260720000000
C       5.958687770000000      7.316981970000000      3.242742620000000
Si      3.156539200000000      0.116670500000000     -0.007208810000000
C       4.566315340000000      0.873271830000000      0.637142710000000
Si      4.467430150000000      0.786399540000000      2.608072470000000
C       6.041244350000000      1.621954620000000      3.281904660000000
Si      4.690479920000000      2.678751750000000     -0.070836780000000
C       6.088946790000000      3.563552940000000      0.752213820000000
Si      6.217704570000000      3.445581000000000      2.595011430000000
C       7.746042940000000      4.170431860000000      3.370474600000000
Si      6.099353240000000      5.242667940000000      0.115921520000000
C       7.659408800000000      6.136929490000000      0.726954660000000
Si      7.537382450000000      6.314224310000000      2.464123290000000
C       9.149651210000000      7.066785170000000      3.304757920000000
Si      6.262925400000000     -0.079207870000000      0.082176260000000
C       7.812569920000000      1.004105840000000      0.798637320000000
Si      7.679340520000000      1.005419380000000      2.558289270000000
C       9.341154789999999      1.901518420000000      3.202660540000000
Si      7.761441800000000      2.617271840000000     -0.079520830000000
C       9.248297490000001      3.461715050000000      0.580629290000000
Si      9.406369730000000      3.551718960000000      2.376314980000000
C      10.806906030000000      4.531642010000000      3.100371510000000
Si      9.237140360000000      5.488410640000000      0.054402810000000
C      10.886261129999999      6.198804020000000      0.692563210000000
Si     10.779844239999999      6.340132030000000      2.565883270000000
C      12.324940040000000      7.139037230000000      3.263611240000000
36

Si      0.376581980000000      0.149211740000000      0.233887150000000
C       1.913980220000000      0.910766300000000      0.884996230000000
Si      1.614838140000000      0.998762900000000      2.842737980000000
C       3.081525160000000      1.889633430000000      3.504301900000000
Si      1.528054420000000      2.560014240000000      0.196370010000000
C       2.908665380000000      3.702775490000000      0.632763890000000
Si      3.087761250000000      3.648422260000000      2.533285740000000
C       4.635016000000000      4.245627470000000      3.231578980000000
Si      3.144687390000000      5.417018960000000      0.034146780000000
C       4.898431620000000      6.174141620000000      0.623908950000000
Si      4.465893970000000      6.197609520000000      2.703322940000000
C       6.186445820000000      7.302321520000000      3.248604640000000
Si      3.267843820000000     -0.090672690000000     -0.289327190000000
C       4.847561190000000      0.970063520000000      0.609811680000000
Si      4.709029030000000      1.049046950000000      2.700545480000000
C       6.317312650000000      1.780948240000000      3.175158700000000
Si      4.471233960000000      2.617116190000000     -0.209272140000000
C       6.054081890000000      3.399548190000000      0.612970380000000
Si      6.246364010000000      3.503509200000000      2.447230580000000
C       7.809219350000000      4.475424130000000      3.080425090000000
Si      6.180299570000000      5.181755000000000      0.037765040000000
C       7.878290340000000      6.218072730000000      0.732060780000000
Si      7.517071760000000      6.493765300000000      2.551190060000000
C       9.142687550000000      7.218887230000000      3.140995100000000
Si      6.380770910000000     -0.038763610000000      0.112602910000000
C       7.997666830000000      0.775285520000000      0.578120610000000
Si      7.689544850000000      0.921292920000000      2.411974030000000
C       9.314354330000000      1.802298630000000      2.879963410000000
Si      7.847310920000000      2.624179720000000     -0.145790590000000
C       9.287329000000000      3.555637120000000      0.497345580000000
Si      9.159269470000000      3.405065040000000      2.386421220000000
C      10.704186569999999      4.562286180000000      3.036010370000000
Si      9.206391269999999      5.400229840000000     -0.021414490000000
C      10.725207010000000      6.278024750000000      0.666453360000000
Si     10.508858560000000      6.302953680000000      2.468974260000000
C      12.173347330000000      7.165566970000000      3.274343540000000
36

Si      0.144561290000000      0.066379240000000      0.156946550000000
C       1.554004700000000      1.017782850000000      0.664526340000000
Si      1.494472060000000      0.867150140000000      2.678871570000000
C       3.049547720000000      1.829918190000000      3.177203920000000
Si      1.548978500000000      2.756616790000000     -0.209820090000000
C       3.059626570000000      3.590922460000000      0.401265590000000
Si      3.081698310000000      3.478889500000000      2.347024050000000
C       4.570970200000000      4.434973600000000      3.032658750000000
Si      3.146814450000000      5.323809250000000      0.125903680000000
C       4.626022560000000      6.386310160000000      0.861553530000000
Si      4.675271380000000      6.245733110000000      2.685157650000000
C       6.267116050000000      7.108573790000000      3.193965420000000
Si      3.093513430000000      0.090374060000000      0.182567460000000
C       4.698320640000000      0.959613210000000      0.739469320000000
Si      4.631281800000000      0.942311260000000      2.685885040000000
C       6.290185180000000      1.830745880000000      3.201590890000000
Si      4.668329790000000      2.497108720000000     -0.054769230000000
C       6.061069460000000      3.600017370000000      0.685565250000000
Si      6.130644210000000      3.513746940000000      2.552618940000000
C       7.749041430000000      4.296202710000000      3.190178050000000
Si      6.086363830000000      5.271995630000000      0.079138740000000
C       7.697146070000000      6.348791750000000      0.725644230000000
Si      7.870458030000000      6.244963230000000      2.564173440000000
C       9.430534339999999      7.169476760000000      3.198635860000000
Si      6.241342760000000     -0.061213720000000      0.079250140000000
C       7.907226480000000      0.991527710000000      0.631871320000000
Si      7.731474310000000      0.903802910000000      2.473154930000000
C       9.458595219999999      1.914200440000000      3.279256190000000
Si      7.748959910000000      2.699210770000000     -0.135152210000000
C       9.255017970000001      3.604608390000000      0.541279750000000
Si      9.101600019999999      3.626443920000000      2.473339990000000
C      10.807927740000000      4.470175080000000      3.019130080000000
Si      9.034983420000000      5.461526730000000     -0.034169570000000
C      10.636783590000000      6.229539440000000      0.543029120000000
Si     11.086288420000001      6.196281140000000      2.422656200000000
C      12.486726810000000      7.147573130000000      3.140302880000000
36

Si      0.090537920000000      0.061499400000000      0.334016470000000
C       1.561309570000000      1.153566720000000      0.937081100000000
Si      1.784337900000000      0.934631170000000      2.763216660000000
C       3.152701520000000      1.789432050000000      3.361158830000000
Si      1.713626780000000      2.737334290000000      0.216271390000000
C       3.160813660000000      3.648662860000000      0.688255990000000
Si      3.139450940000000      3.554124680000000      2.544955820000000
C       4.829988210000000      4.256754430000000      3.254284600000000
Si      3.009837720000000      5.474164010000000      0.088370310000000
C       4.580968170000000      6.169161100000000      0.844749770000000
Si      4.743325180000000      6.038998230000000      2.854351960000000
C       6.059314060000000      7.252553240000000      3.197346220000000
Si      3.162336880000000      0.206471060000000      0.045430150000000
C       4.763602370000000      1.039526240000000      0.484274210000000
Si      4.687610090000000      0.892915620000000      2.640755710000000
C       6.452006460000000      1.747054640000000      3.008841960000000
Si      4.487804920000000      2.728340400000000     -0.202168760000000
C       5.953085280000000      3.633144190000000      0.488589840000000
Si      6.102405190000000      3.480491870000000      2.265898260000000
C       7.601612320000000      4.310564980000000      3.077351780000000
Si      6.065601230000000      5.548323530000000      0.180578230000000
C       7.717333450000000      6.338415120000000      0.722508410000000
Si      7.777667210000000      6.173702170000000      2.551198320000000
C       9.376598650000000      7.078837850000000      3.120051340000000
Si      6.228685110000000     -0.025786580000000     -0.174929980000000
C       7.714634030000000      0.836544480000000      0.458005060000000
Si      7.827902090000000      0.534018460000000      2.291570220000000
C       9.527434540000000      1.789572440000000      2.986034680000000
Si      7.635664310000000      2.518276380000000     -0.116757310000000
C       9.351405339999999      3.475478780000000      0.581385240000000
Si      9.138189069999999      3.638370670000000      2.360522930000000
C      10.852182669999999      4.553584130000000      3.089701180000000
Si      9.100614100000000      5.637519760000000     -0.119663200000000
C      10.808482880000000      6.351568170000000      0.697275000000000
Si     10.736481100000001      6.212290330000000      2.569197500000000
C      12.341048550000000      6.990802440000000      3.183377530000000
36

Si      0.072093590000000      0.022532090000000      0.219957150000000
C       1.606952850000000      0.847646950000000      0.806960640000000
Si      1.566561160000000      0.948101120000000      2.767056220000000
C       3.155025250000000      1.818832310000000      3.302992070000000
Si      1.354212790000000      2.710705210000000     -0.217990930000000
C       2.942304910000000      3.523798960000000      0.419670100000000
Si      3.169019620000000      3.474518950000000      2.365730080000000
C       4.528609020000000      4.613799830000000      3.121524400000000
Si      3.158649170000000      5.302822060000000     -0.007065180000000
C       4.713987090000000      6.155268200000000      0.663849290000000
Si      4.755974850000000      6.389697610000000      2.548020580000000
C       6.081954300000000      7.170910280000000      3.184375980000000
Si      3.119469370000000      0.083200780000000      0.127718950000000
C       4.594610380000000      0.963298080000000      0.615129050000000
Si      4.802827290000000      0.953515410000000      2.639932850000000
C       6.169188660000000      1.878532250000000      3.311456920000000
Si      4.637389990000000      2.746819140000000     -0.069707300000000
C       5.996833920000000      3.624699220000000      0.577372910000000
Si      6.236145690000000      3.558170720000000      2.511246810000000
C       7.785495710000000      4.532141200000000      3.166035100000000
Si      6.203639120000000      5.337513170000000      0.052737740000000
C       7.861719720000000      6.247190230000000      0.701060390000000
Si      7.828888870000000      6.333551650000000      2.499799830000000
C       9.294378529999999      7.071712480000000      3.287410960000000
Si      6.013845970000000     -0.121403030000000     -0.041002400000000
C       7.674249070000000      0.881656530000000      0.699696980000000
Si      7.799822700000000      1.028335280000000      2.553908760000000
C       9.285152610000001      1.873971150000000      3.215235780000000
Si      7.590403970000000      2.557893900000000     -0.024044230000000
C       9.112836120000001      3.537927820000000      0.520438800000000
Si      9.361253169999999      3.595877900000000      2.475146200000000
C      10.833805240000000      4.166012470000000      3.019532810000000
Si      9.331942600000000      5.367373620000000      0.047689440000000
C      10.940750220000000      6.183526980000000      0.550997960000000
Si     10.841280980000001      6.152319740000000      2.604928030000000
C      12.264818280000000      7.100148390000000      3.107147140000000
36

Si     -0.215471110000000     -0.058396490000000     -0.067872460000000
C       1.217459920000000      0.952919880000000      0.437810450000000
Si      1.404319870000000      1.057268090000000      2.329163470000000
C       3.108567470000000      1.785833070000000      3.073286660000000
Si      1.715053230000000      2.737744410000000     -0.027371300000000
C       3.297163250000000      3.462346040000000      0.533932110000000
Si      3.209006570000000      3.395433200000000      2.470699100000000
C       4.857324190000000      4.404199520000000      3.099719250000000
Si      3.051851370000000      5.314249230000000      0.191184290000000
C       4.480980830000000      6.288740330000000      0.609636960000000
Si      4.747316340000000      6.169761510000000      2.528845260000000
C       6.171438930000000      7.265182530000000      3.209996370000000
Si      2.813021860000000      0.138328840000000      0.010476870000000
C       4.517966110000000      0.830326900000000      0.533318410000000
Si      4.719563610000000      0.749070040000000      2.325465070000000
C       6.092053700000000      1.821191630000000      3.111493620000000
Si      4.888879100000000      2.879111540000000     -0.087413030000000
C       6.436403660000000      3.660888300000000      0.509246650000000
Si      6.530089330000000      3.461474600000000      2.437907530000000
C       7.841461040000000      4.493734080000000      3.031280210000000
Si      6.160099820000000      5.524965080000000     -0.031656660000000
C       7.524028430000000      6.531533790000000      0.887663760000000
Si      7.664355030000000      6.205990850000000      2.729909140000000
C       9.165926620000000      7.184169990000000      3.317770100000000
Si      6.121119800000000     -0.170999200000000      0.126069710000000
C       7.593418770000000      0.954300120000000      0.698239520000000
Si      7.769447460000000      0.960618840000000      2.551645320000000
C       9.199256770000000      1.471143730000000      3.370292970000000
Si      7.875021030000000      2.613303300000000     -0.147256940000000
C       9.221472540000001      3.745121240000000      0.799614920000000
Si      9.361120720000001      3.493570550000000      2.534000770000000
C      11.091889110000000      4.327168520000000      3.128249410000000
Si      8.986824360000000      5.359414240000000      0.194063510000000
C      10.770480429999999      6.312631050000000      0.959665570000000
Si     10.941851099999999      6.389705320000000      2.791649830000000
C      12.489098040000000      7.216249750000000      3.414596820000000
36

Si      0.088210820000000      0.268834120000000      0.142694200000000
C       1.706490990000000      1.035411820000000      0.635893940000000
Si      1.816374790000000      0.593753820000000      2.733577340000000
C       3.252003510000000      1.640570340000000      3.334108030000000
Si      1.379615850000000      2.906801140000000      0.060048720000000
C       2.928911720000000      3.690683080000000      0.858966750000000
Si      3.051323300000000      3.414282300000000      2.616471760000000
C       4.723073300000000      4.330799940000000      3.399838620000000
Si      3.169018840000000      5.421438460000000     -0.071740890000000
C       4.659990620000000      6.423898190000000      0.489609700000000
Si      4.739316370000000      6.074536380000000      2.495054810000000
C       6.110701510000000      6.824451130000000      3.290152500000000
Si      3.083966860000000     -0.013087080000000     -0.005859990000000
C       4.538526440000000      0.871064770000000      0.640226230000000
Si      4.848312240000000      0.996654170000000      2.644140790000000
C       6.487323730000000      1.863043790000000      3.295683600000000
Si      4.248214490000000      2.701630870000000     -0.101971850000000
C       6.198479840000000      3.343756320000000      0.762871380000000
Si      6.225416710000000      3.541002740000000      2.676887690000000
C       7.819383380000000      4.446539120000000      3.111932800000000
Si      6.161821040000000      5.339255110000000     -0.060671810000000
C       7.560106820000000      6.434851140000000      0.521008510000000
Si      7.765637130000000      6.200800440000000      2.572933910000000
C       9.317508630000001      7.021934240000000      3.124390110000000
Si      6.108717600000000      0.026785180000000      0.068216850000000
C       7.678128810000000      0.895681830000000      0.539135040000000
Si      7.914233470000000      1.033734010000000      2.654886030000000
C       9.469466199999999      1.890495700000000      2.987203230000000
Si      7.584322070000000      2.756936590000000     -0.209655930000000
C       9.173039340000001      3.586080880000000      0.542655000000000
Si      9.162957690000001      3.505940580000000      2.422321510000000
C      10.716727759999999      4.469181990000000      2.949147600000000
Si      9.204458969999999      5.401561090000000      0.141336980000000
C      11.026162769999999      6.395120730000000      0.472408790000000
Si     10.863032600000000      6.241088860000000      2.344009910000000
C      12.478544449999999      7.096714370000000      3.155206320000000
36

Si     -0.044843630000000     -0.009055560000000     -0.179664290000000
C       1.419815950000000      1.067018080000000      0.432565860000000
Si      1.561211940000000      0.841452280000000      2.279348560000000
C       3.139286170000000      1.563393210000000      2.986491420000000
Si      1.384717590000000      2.963776210000000      0.007516810000000
C       2.940942140000000      3.822766860000000      0.472501430000000
Si      3.359999500000000      3.364707710000000      2.517912470000000
C       4.636961490000000      4.386622550000000      3.094060160000000
Si      3.082363640000000      5.507359970000000     -0.276944140000000
C       4.649620310000000      6.146283280000000      0.541934470000000
Si      4.639060710000000      6.074453760000000      2.417864060000000
C       6.217601250000000      6.770559120000000      2.839883620000000
Si      2.888080610000000     -0.059650330000000     -0.077656320000000
C       4.409237660000000      0.976478460000000      0.641075950000000
Si      4.663933920000000      0.884457210000000      2.503745810000000
C       6.218528900000000      1.863305760000000      3.217298730000000
Si      4.390057170000000      2.795592240000000     -0.001446590000000
C       5.976973060000000      3.462434000000000      0.888090730000000
Si      6.243468460000000      3.563282320000000      2.772659620000000
C       7.906092350000000      4.698823760000000      3.401477090000000
Si      6.189722340000000      5.265294620000000     -0.072693380000000
C       7.614745450000000      6.404272850000000      0.453646500000000
Si      7.943466010000000      6.230954190000000      2.358257820000000
C       9.417766210000000      7.029372440000000      3.160036710000000
Si      6.180868100000000     -0.038985010000000      0.194653060000000
C       7.844516860000000      0.914265270000000      0.558798070000000
Si      7.765036220000000      0.919392540000000      2.666400960000000
C       9.303722459999999      1.742046540000000      3.192654650000000
Si      7.657960080000000      2.846407390000000      0.202734210000000
C       9.270221460000000      3.703643720000000      1.017692000000000
Si      9.329469230000001      3.430825100000000      2.880403870000000
C      11.019316249999999      4.625363150000000      3.558937500000000
Si      9.385618709999999      5.508426760000000      0.041402730000000
C      10.845165410000000      6.331749200000000      0.815202690000000
Si     11.015862020000000      6.163041000000000      2.681304100000000
C      12.497050870000001      7.126517480000000      3.321842690000000
36

Si     -0.014196840000000      0.011651850000000      0.050197950000000
C       1.540587420000000      0.848552250000000      0.639047760000000
Si      1.468677440000000      0.871363770000000      2.610733570000000
C       3.043461750000000      1.747270200000000      3.298972250000000
Si      1.546501880000000      2.655263080000000      0.031796820000000
C       3.137075960000000      3.531018300000000      0.707927240000000
Si      3.071978330000000      3.579800250000000      2.560246430000000
C       4.684313010000000      4.444055840000000      3.190499180000000
Si      3.178724450000000      5.431950410000000      0.006459070000000
C       4.683610470000000      6.269267820000000      0.670005590000000
Si      4.634097130000000      6.193533420000000      2.615849000000000
C       6.154146460000000      7.162510520000000      3.192291940000000
Si      3.112281320000000      0.048719490000000     -0.055180800000000
C       4.626610270000000      0.892008290000000      0.630393520000000
Si      4.574417730000000      0.862518040000000      2.502647080000000
C       6.100476860000000      1.828416740000000      3.182278100000000
Si      4.699592470000000      2.653448490000000     -0.001732390000000
C       6.242143130000000      3.581388600000000      0.505933380000000
Si      6.274376770000000      3.599871660000000      2.472303740000000
C       7.712419400000000      4.532929520000000      3.132450250000000
Si      6.255059590000000      5.335063460000000     -0.013283380000000
C       7.780631900000000      6.376442240000000      0.610983170000000
Si      7.845925530000000      6.338774120000000      2.499784330000000
C       9.339535020000000      7.139100620000000      3.116438340000000
Si      6.208472750000000     -0.039739270000000      0.088786050000000
C       7.662446640000000      0.876155170000000      0.703653270000000
Si      7.652902560000000      0.889194160000000      2.550501830000000
C       9.216058000000000      1.748916430000000      3.225892230000000
Si      7.744021190000000      2.662867970000000     -0.052536930000000
C       9.177587519999999      3.562400250000000      0.667530840000000
Si      9.167457349999999      3.549138510000000      2.522673010000000
C      10.822337090000000      4.501619470000000      3.130385990000000
Si      9.262889030000000      5.458877790000000      0.064365250000000
C      10.870815880000000      6.237643980000000      0.652423110000000
Si     10.984140780000001      6.215450100000000      2.491792360000000
C      12.460195740000000      7.200855840000000      3.267861510000000
36

Si      0.044000760000000     -0.011415040000000      0.193946910000000
C       1.517728950000000      1.131321270000000      0.740694540000000
Si      1.705416910000000      1.044163000000000      2.733043080000000
C       3.156057780000000      1.780299990000000      3.305467500000000
Si      1.483351530000000      2.777419310000000     -0.098079300000000
C       3.057810220000000      3.459537860000000      0.527655190000000
Si      3.090454930000000      3.525762690000000      2.385254700000000
C       4.621426890000000      4.391898600000000      3.053796720000000
Si      3.176786260000000      5.334671780000000     -0.026193250000000
C       4.616763770000000      6.211486170000000      0.718627540000000
Si      4.473893540000000      6.270880880000000      2.562460320000000
C       6.133345400000000      7.037602840000000      3.019679560000000
Si      3.169428090000000      0.114703230000000      0.067564390000000
C       4.707695770000000      0.935165640000000      0.766815210000000
Si      4.555729170000000      0.865483410000000      2.644617540000000
C       6.375131210000000      1.912749840000000      3.290494940000000
Si      4.682421420000000      2.658164460000000     -0.003762610000000
C       6.233389450000000      3.499509480000000      0.575059760000000
Si      6.250408470000000      3.564178200000000      2.546180520000000
C       7.629982870000000      4.568443000000000      3.108307020000000
Si      6.371368920000000      5.253278350000000      0.023153350000000
C       7.754494670000000      6.335219800000000      0.630500700000000
Si      7.670755920000000      6.194228610000000      2.605313860000000
C       9.212987139999999      6.957646600000000      3.270718350000000
Si      6.227251500000000     -0.015822810000000      0.050680290000000
C       7.774232620000000      0.947861870000000      0.541506960000000
Si      7.768582550000000      0.872435390000000      2.556379370000000
C       9.129041530000000      1.812675210000000      3.223982810000000
Si      7.606353420000000      2.698895960000000     -0.195575750000000
C       9.196112749999999      3.581148550000000      0.499470240000000
Si      9.265314829999999      3.484734090000000      2.440676010000000
C      10.799415550000001      4.398494840000000      2.992144620000000
Si      9.411627340000001      5.403798540000000      0.046267680000000
C      10.885593340000000      6.218860580000000      0.650270520000000
Si     10.786437110000000      6.309443220000000      2.554640850000000
C      12.284268460000000      7.236896930000000      3.279687370000000
36

Si      0.056236100000000     -0.192853120000000     -0.207629980000000
C       1.503057890000000      0.840214110000000      0.432869620000000
Si      1.551779220000000      1.061280980000000      2.388154110000000
C       2.980147390000000      1.800256110000000      3.077037520000000
Si      1.496467290000000      2.566119900000000     -0.027278690000000
C       3.002840150000000      3.480540120000000      0.741617740000000
Si      2.869459720000000      3.722668740000000      2.479794590000000
C       4.540845240000000      4.566991330000000      3.188869890000000
Si      2.974831550000000      5.309010770000000     -0.244614440000000
C       4.559638650000000      6.169157260000000      0.293331450000000
Si      4.709347700000000      6.421586290000000      2.345129060000000
C       6.149781200000000      7.216434020000000      2.975498860000000
Si      3.159384280000000     -0.065520800000000      0.135035710000000
C       4.738774060000000      0.878130150000000      0.673197430000000
Si      4.625620200000000      0.895420260000000      2.534896440000000
C       6.160586810000000      1.823843640000000      3.237160570000000
Si      4.698117820000000      2.668740220000000      0.228045790000000
C       6.298462090000000      3.719272580000000      0.878947000000000
Si      5.902071540000000      3.581091010000000      2.594601850000000
C       7.706054420000000      4.400524710000000      3.316216040000000
Si      6.154328760000000      5.381840540000000     -0.264151940000000
C       7.797315090000000      6.260649460000000      0.271110930000000
Si      7.786576960000000      6.069537540000000      2.526691310000000
C       9.394119330000001      7.140449380000000      3.112827320000000
Si      6.327358600000000     -0.062647330000000      0.185959670000000
C       7.806395360000000      0.804950210000000      0.621435950000000
Si      7.762782470000000      0.904907940000000      2.721520110000000
C       9.228106739999999      1.885597050000000      3.157504760000000
Si      7.668973270000000      2.845071190000000      0.444222150000000
C       9.549449879999999      3.554236310000000      0.844547720000000
Si      9.274710230000000      3.600656450000000      2.801728650000000
C      10.776722790000001      4.715349860000000      3.517259430000000
Si      9.469943680000000      5.205760090000000     -0.213066840000000
C      11.043347010000000      6.230605850000000      0.672876460000000
Si     10.941028879999999      6.348038740000000      2.705366290000000
C      12.576031629999999      7.126722480000000      3.070715430000000
36

Si     -0.024580090000000      0.044557220000000      0.033914950000000
C       1.639969850000000      0.881438520000000      0.635240710000000
Si      1.640161940000000      0.920411490000000      2.662416640000000
C       3.223374090000000      1.927450620000000      3.302873430000000
Si      1.590820040000000      2.662418590000000      0.042942790000000
C       3.139183810000000      3.523637900000000      0.718637070000000
Si      3.105339810000000      3.657396960000000      2.616253330000000
C       4.748492040000000      4.471409710000000      3.217329960000000
Si      3.033485790000000      5.341488720000000      0.083796340000000
C       4.576549990000000      6.263214620000000      0.673219130000000
Si      4.608102800000000      6.225260280000000      2.558682450000000
C       6.137760460000000      7.143040320000000      3.289422910000000
Si      3.126101030000000     -0.014914290000000     -0.049017350000000
C       4.694287700000000      0.948115520000000      0.556774740000000
Si      4.616857920000000      0.963338260000000      2.494148540000000
C       6.259606090000000      1.810809580000000      3.198070740000000
Si      4.618304670000000      2.731440270000000     -0.104630850000000
C       6.145132440000000      3.548272900000000      0.621347120000000
Si      6.216434450000000      3.502203800000000      2.568195910000000
C       7.770051230000000      4.390242950000000      3.046193950000000
Si      6.092365980000000      5.358929100000000     -0.031650430000000
C       7.829539830000000      6.240368330000000      0.563575620000000
Si      7.762564370000000      6.248234170000000      2.453067230000000
C       9.299207810000000      7.168408980000000      3.134506950000000
Si      6.213751360000000     -0.025090050000000      0.054491400000000
C       7.718881210000000      0.899895780000000      0.749447310000000
Si      7.775767630000000      0.951297450000000      2.633961370000000
C       9.400813250000001      1.827458010000000      3.146717950000000
Si      7.604912750000000      2.711639530000000      0.060874320000000
C       9.235670020000001      3.512948290000000      0.566465070000000
Si      9.296386560000000      3.516930640000000      2.431481770000000
C      10.835082930000000      4.509341070000000      3.170519580000000
Si      9.276699460000000      5.317784690000000     -0.092188920000000
C      10.761310210000000      6.174407640000000      0.631090210000000
Si     10.850194050000001      6.229799900000000      2.588309530000000
C      12.456033750000000      7.180746220000000      3.164064050000000
36

Si      0.259934720000000     -0.146677300000000      0.269513920000000
C       1.538269160000000      0.976031460000000      0.741414360000000
Si      1.544322410000000      0.874544410000000      2.720159520000000
C       3.044658130000000      1.896535880000000      3.393650690000000
Si      1.716885000000000      2.779546210000000     -0.018131290000000
C       3.306361120000000      3.705808180000000      0.735366080000000
Si      3.139775090000000      3.576705850000000      2.554680670000000
C       4.718779520000000      4.439542410000000      3.276199890000000
Si      3.097597130000000      5.494791620000000      0.131284630000000
C       4.831265200000000      6.060910510000000      0.850149500000000
Si      4.454424300000000      6.286657650000000      2.773145140000000
C       6.386158910000000      7.248590920000000      3.283237170000000
Si      2.859100100000000      0.003078460000000     -0.152000560000000
C       4.678798120000000      0.764665540000000      0.477794800000000
Si      4.688410230000000      1.214859140000000      2.464126330000000
C       6.165106920000000      1.971872330000000      3.085101170000000
Si      4.790326530000000      2.818789490000000     -0.218773680000000
C       6.441831370000000      3.651885940000000      0.324765570000000
Si      6.309255640000000      3.520520830000000      2.383858730000000
C       7.772523480000000      4.490415180000000      3.036377680000000
Si      6.221367560000000      5.428965580000000      0.084158170000000
C       7.650928320000000      6.179215810000000      0.657566730000000
Si      7.835975790000000      6.308994480000000      2.522125380000000
C       9.037000280000001      7.444627770000000      3.143652030000000
Si      6.060139260000000     -0.092242200000000     -0.281860590000000
C       7.858432990000000      0.735602300000000      0.406548700000000
Si      7.553013440000000      0.950084540000000      2.621466760000000
C       9.169718359999999      1.734827740000000      3.102814180000000
Si      7.792078550000000      2.351551240000000     -0.068682290000000
C       9.357250300000000      3.295882170000000      0.588758380000000
Si      9.211254710000000      3.579661390000000      2.439515390000000
C      10.774851390000000      4.511248880000000      3.143705750000000
Si      9.319751269999999      5.083693220000000      0.070550160000000
C      10.720260690000000      6.249264060000000      0.794486480000000
Si     10.627039870000001      6.290301150000000      2.756877470000000
C      12.238746450000001      7.109411690000000      3.234088670000000
36

Si      0.014389610000000      0.056490940000000      0.089224620000000
C       1.684363390000000      0.885018810000000      0.651058120000000
Si      1.623333300000000      0.856319240000000      2.487560930000000
C       3.075989730000000      1.829602310000000      3.203894470000000
Si      1.585958350000000      2.664415520000000      0.071681090000000
C       3.125212020000000      3.496716060000000      0.694358120000000
Si      3.153607450000000      3.651327140000000      2.565523990000000
C       4.603706040000000      4.471144240000000      3.242965890000000
Si      3.140300490000000      5.358526350000000      0.012924470000000
C       4.587355570000000      6.274004440000000      0.734055830000000
Si      4.664125550000000      6.242447360000000      2.609109520000000
C       6.253074980000000      7.156937190000000      3.131962980000000
Si      3.156517090000000      0.029743820000000     -0.053930390000000
C       4.655073330000000      0.984194530000000      0.677327370000000
Si      4.618614700000000      0.857555000000000      2.609700310000000
C       6.225742760000000      1.745569040000000      3.143029840000000
Si      4.584680330000000      2.769594520000000     -0.034811270000000
C       6.162272670000000      3.512892800000000      0.547955810000000
Si      6.130043610000000      3.534578950000000      2.472214660000000
C       7.694393170000000      4.480140390000000      3.138527660000000
Si      6.078307380000000      5.409582070000000      0.092507610000000
C       7.717395600000000      6.207510170000000      0.578102220000000
Si      7.742323330000000      6.259300490000000      2.479968310000000
C       9.209755830000001      7.217434540000000      3.201140330000000
Si      6.233311020000000      0.026710920000000      0.094414540000000
C       7.761939810000000      0.955845620000000      0.646291740000000
Si      7.834317240000000      0.894012260000000      2.573840470000000
C       9.312224720000000      1.674284160000000      3.194398100000000
Si      7.743855330000000      2.685795740000000     -0.043044110000000
C       9.308743290000001      3.565090030000000      0.668011920000000
Si      9.323002470000000      3.563866430000000      2.574663570000000
C      10.843907690000000      4.502526410000000      3.142093940000000
Si      9.196236510000000      5.264923940000000     -0.069819780000000
C      10.855924809999999      6.228833220000000      0.622220140000000
Si     10.809801820000001      6.252826620000000      2.504202620000000
C      12.258268500000000      7.151877890000000      3.095889780000000
36

Si     -0.026882700000000      0.019994440000000      0.138092020000000
C       1.514279900000000      0.891978420000000      0.778253180000000
Si      1.596763240000000      0.906272510000000      2.594982340000000
C       3.055288010000000      1.796190190000000      3.167622070000000
Si      1.523113310000000      2.599255790000000     -0.005012000000000
C       3.137103230000000      3.536260050000000      0.584544380000000
Si      3.095605240000000      3.601115190000000      2.554538790000000
C       4.619977450000000      4.473100610000000      3.192197250000000
Si      3.130830360000000      5.389041270000000      0.031989990000000
C       4.692907210000000      6.313153230000000      0.738649020000000
Si      4.689039960000000      6.267079320000000      2.604134840000000
C       6.284944350000000      7.196935820000000      3.202860990000000
Si      3.087902430000000     -0.029044740000000     -0.066720550000000
C       4.634550500000000      0.825872850000000      0.651802250000000
Si      4.587711910000000      0.900992820000000      2.545773700000000
C       6.219726590000000      1.831900500000000      3.169865770000000
Si      4.664480810000000      2.627080400000000     -0.020364960000000
C       6.235881950000000      3.524138600000000      0.649691280000000
Si      6.269740210000000      3.611060220000000      2.564044590000000
C       7.706963310000000      4.560476290000000      3.179806610000000
Si      6.186878040000000      5.353851000000000      0.004346910000000
C       7.726922040000000      6.247371650000000      0.591363730000000
Si      7.788749940000000      6.292933210000000      2.428398360000000
C       9.353075090000001      7.259980890000000      3.133500880000000
Si      6.206846540000000     -0.038252440000000      0.036628540000000
C       7.722735790000000      0.946635500000000      0.597006590000000
Si      7.761587670000000      0.885215280000000      2.553470110000000
C       9.211959540000001      1.762254480000000      3.271044810000000
Si      7.681618930000000      2.679903670000000     -0.050812310000000
C       9.264961160000000      3.556104770000000      0.626345860000000
Si      9.224469930000000      3.631899380000000      2.566111800000000
C      10.822393659999999      4.550469180000000      3.153249500000000
Si      9.279740750000000      5.285370700000000     -0.052709110000000
C      10.838283100000000      6.206092160000000      0.654767960000000
Si     10.862574810000000      6.267838390000000      2.533888620000000
C      12.344726800000000      7.156295120000000      3.146435260000000
36

Si     -0.246216110000000     -0.123826390000000     -0.085648260000000
C       1.402680300000000      0.865049550000000      0.601825470000000
Si      1.414620060000000      1.008211980000000      2.530055310000000
C       3.002596960000000      1.669457360000000      3.214278980000000
Si      1.838297880000000      2.555799220000000     -0.054680840000000
C       3.243850810000000      3.512964430000000      0.747698220000000
Si      3.291844010000000      3.626969920000000      2.644478880000000
C       4.771200680000000      4.509482880000000      3.116108210000000
Si      3.078387530000000      5.190719860000000      0.414595050000000
C       4.660614010000000      6.239989550000000      0.764934480000000
Si      4.828051650000000      6.451919070000000      2.791581840000000
C       6.398954210000000      7.345894500000000      3.315771810000000
Si      2.979118710000000      0.049045560000000      0.045688720000000
C       4.678886950000000      1.024908420000000      0.474656080000000
Si      4.617480350000000      0.909352130000000      2.269255760000000
C       6.149827670000000      1.852913580000000      3.200915960000000
Si      4.890834240000000      2.678939570000000     -0.103110400000000
C       6.203442320000000      3.710709170000000      0.560235340000000
Si      6.261018730000000      3.718973740000000      2.408721200000000
C       7.948235360000000      4.598020890000000      3.120098840000000
Si      6.013537590000000      5.749708780000000     -0.110633760000000
C       7.953111640000000      6.262615530000000      0.717687450000000
Si      7.814940110000000      6.423691930000000      2.539100840000000
C       9.355727940000000      7.215539010000000      3.196182550000000
Si      5.933742270000000     -0.126340000000000      0.015398160000000
C       7.516905160000000      0.641934680000000      0.627979220000000
Si      7.680130570000000      0.742713940000000      2.614966830000000
C       9.219695939999999      1.895925830000000      3.043114720000000
Si      7.710034130000000      2.581445640000000     -0.166154270000000
C       9.299874660000000      3.398429800000000      0.621387440000000
Si      9.278825910000000      3.589383130000000      2.549699220000000
C      10.970218890000000      4.401318720000000      2.994487970000000
Si      9.196872380000000      5.210127970000000      0.033963170000000
C      10.617605319999999      6.084800200000000      0.745857440000000
Si     10.827490450000001      6.178576270000000      2.621812530000000
C      12.465031420000001      7.022226420000000      3.429742950000000
36

Si      0.171170460000000     -0.051516370000000      0.030670070000000
C       1.689613830000000      0.825864610000000      0.710747990000000
Si      1.446162760000000      0.925372770000000      2.550208190000000
C       3.131343670000000      1.727240680000000      3.156450270000000
Si      1.645365870000000      2.665525750000000     -0.209560990000000
C       3.178490680000000      3.639915190000000      0.517042770000000
Si      3.115502660000000      3.453492460000000      2.512935170000000
C       4.647164050000000      4.454227720000000      3.077489140000000
Si      3.058765430000000      5.322842420000000      0.118969570000000
C       4.762343390000000      6.233997170000000      0.716006300000000
Si      4.696651580000000      6.409943490000000      2.540047770000000
C       6.163031440000000      7.188652580000000      3.381669150000000
Si      3.158431920000000      0.176859670000000      0.136453330000000
C       4.637913410000000      0.929706790000000      0.718764760000000
Si      4.742390220000000      0.862096770000000      2.727017480000000
C       6.058025750000000      1.832329150000000      3.350875710000000
Si      4.595397930000000      2.515811540000000     -0.163168550000000
C       6.137817360000000      3.517168000000000      0.659037600000000
Si      5.930825770000000      3.567927420000000      2.557375570000000
C       7.592252310000000      4.348718550000000      3.183077200000000
Si      6.214784780000000      5.334073780000000      0.091908820000000
C       7.654240920000000      6.141935240000000      0.800271390000000
Si      7.758990940000000      6.401872750000000      2.531585350000000
C       9.405079819999999      7.192531590000000      3.236790330000000
Si      6.300555130000000      0.027993300000000      0.134055280000000
C       7.748806390000000      1.013033270000000      0.702673910000000
Si      7.643985630000000      1.077618790000000      2.534979590000000
C       9.415982830000001      1.946962560000000      3.274447810000000
Si      7.772731030000000      2.687575010000000     -0.098620800000000
C       9.308793890000000      3.477861840000000      0.606701160000000
Si      9.302783920000000      3.569676360000000      2.456814290000000
C      10.815100190000001      4.489518320000000      3.002620720000000
Si      9.152327780000000      5.321465000000000     -0.027624220000000
C      10.755435410000000      6.106867300000000      0.593250460000000
Si     10.858511710000000      6.176748270000000      2.417525650000000
C      12.391487750000000      7.115577960000000      3.079841530000000
36

Si      0.069213510000000     -0.010169920000000      0.020222010000000
C       1.550657490000000      0.956752960000000      0.733880590000000
Si      1.447777860000000      0.911272350000000      2.643701550000000
C       3.087367920000000      1.765058850000000      3.200974410000000
Si      1.536371370000000      2.719703030000000     -0.062624530000000
C       3.153821600000000      3.457984250000000      0.682278020000000
Si      3.097030220000000      3.530527960000000      2.583116440000000
C       4.550583080000000      4.429535050000000      3.141709380000000
Si      3.146833300000000      5.408810730000000      0.029722100000000
C       4.739016910000000      6.161191310000000      0.656877410000000
Si      4.695067040000000      6.204687500000000      2.494978260000000
C       6.187623350000000      7.169879030000000      3.143084150000000
Si      2.997462560000000      0.092047230000000      0.055118160000000
C       4.645913190000000      0.938323410000000      0.621972440000000
Si      4.669646780000000      0.923578330000000      2.465088610000000
C       6.118905130000000      1.834102630000000      3.198424080000000
Si      4.690567600000000      2.667866490000000      0.021185260000000
C       6.211186560000000      3.514651310000000      0.605712820000000
Si      6.166004390000000      3.628637090000000      2.577786870000000
C       7.744255680000000      4.530056870000000      3.199855160000000
Si      6.314604620000000      5.335179160000000     -0.084614190000000
C       7.786418890000000      6.232797560000000      0.660890560000000
Si      7.736894070000000      6.247601320000000      2.613238510000000
C       9.350530310000000      7.181826000000000      3.072158680000000
Si      6.138231960000000      0.038171600000000     -0.045403060000000
C       7.731337750000000      0.852839580000000      0.587236290000000
Si      7.647128190000000      0.868493200000000      2.544117940000000
C       9.132980910000001      1.719434710000000      3.085776640000000
Si      7.701633550000000      2.615030680000000      0.031089560000000
C       9.295293980000000      3.635410230000000      0.593680020000000
Si      9.226061540000000      3.628753380000000      2.482411270000000
C      10.781052550000000      4.418390720000000      3.186172770000000
Si      9.387450830000001      5.424410790000000      0.087530000000000
C      10.986227990000000      6.340236000000000      0.703838950000000
Si     10.941456490000000      6.152381620000000      2.598630130000000
C      12.336629250000000      7.180187850000000      3.193483420000000
36

Si      0.108242970000000     -0.016543770000000     -0.047181050000000
C       1.583393720000000      0.969243520000000      0.509464350000000
Si      1.570136100000000      0.988398040000000      2.374567440000000
C       2.970649680000000      1.761380800000000      3.124278440000000
Si      1.667353730000000      2.727554820000000     -0.027378160000000
C       3.164528200000000      3.613632140000000      0.672403170000000
Si      3.082569950000000      3.589759760000000      2.598633450000000
C       4.681434410000000      4.325443250000000      3.330779930000000
Si      3.072333520000000      5.458983010000000      0.028869080000000
C       4.560828090000000      6.244617330000000      0.591837800000000
Si      4.526521430000000      6.339501380000000      2.577424340000000
C       6.168069800000000      7.337242320000000      3.242522500000000
Si      3.018725060000000     -0.108027220000000     -0.088377780000000
C       4.760428840000000      0.811532910000000      0.683504830000000
Si      4.641069240000000      0.809491630000000      2.520730150000000
C       6.098347630000000      1.747462100000000      3.268324940000000
Si      4.825762000000000      2.603013640000000      0.100384190000000
C       6.197564940000000      3.524989330000000      0.762377120000000
Si      6.223105260000000      3.643534900000000      2.594175420000000
C       7.776045230000000      4.443183590000000      3.184249250000000
Si      5.866411420000000      5.268427010000000     -0.090118020000000
C       7.642497540000000      6.154216690000000      0.653508690000000
Si      7.629100040000000      6.376782150000000      2.545720960000000
C       9.318205580000001      7.060062450000000      3.152418900000000
Si      6.303740260000000     -0.118529400000000     -0.112537790000000
C       7.829635540000000      0.783169810000000      0.682239080000000
Si      7.474919830000000      1.009103640000000      2.459598040000000
C       9.286300440000000      1.839139390000000      3.081696210000000
Si      7.929884360000000      2.564999210000000      0.060160280000000
C       9.327189360000000      3.593423480000000      0.693601880000000
Si      9.486736420000000      3.579818700000000      2.526167910000000
C      10.920679359999999      4.476717630000000      3.293517110000000
Si      9.118535580000000      5.440256160000000      0.161182490000000
C      10.669192680000000      6.295551840000000      0.789348310000000
Si     11.029324610000000      6.263500160000000      2.566149720000000
C      12.516568610000000      7.260388800000000      3.270086400000000
36

Si      0.399012000000000      0.080805490000000      0.163043720000000
C       1.970967650000000      1.086979700000000      1.031391060000000
Si      1.543256030000000      1.045377590000000      2.851605340000000
C       3.170943090000000      1.910189420000000      3.221258300000000
Si      1.586687080000000      2.656904840000000      0.077582000000000
C       3.018525590000000      3.405873810000000      0.622617710000000
Si      3.186941650000000      3.553824630000000      2.634807660000000
C       4.581098190000000      4.390407950000000      3.212137670000000
Si      3.048633010000000      5.295402270000000      0.247096570000000
C       4.833090940000000      6.224127640000000      0.661918140000000
Si      4.649280810000000      6.160910200000000      2.491991320000000
C       5.948273800000000      7.450723170000000      3.402489700000000
Si      3.102404980000000     -0.011887290000000      0.114035750000000
C       4.754589370000000      0.687441350000000      0.607296930000000
Si      5.008435080000000      0.887995720000000      2.554714210000000
C       6.354157250000000      1.932870330000000      3.209728780000000
Si      4.454336810000000      2.597102140000000     -0.050402220000000
C       5.990122950000000      3.306308520000000      0.579446350000000
Si      6.078898280000000      3.661451370000000      2.498789430000000
C       7.552039720000000      4.450033050000000      2.890581260000000
Si      6.201963890000000      5.120343950000000      0.147383700000000
C       7.748978680000000      6.125891880000000      0.643574850000000
Si      7.531417990000000      6.350293860000000      2.591558970000000
C       9.120590269999999      7.331374420000000      3.210953390000000
Si      6.276327530000000     -0.032164680000000     -0.126250650000000
C       7.917983670000000      0.899833040000000      0.427379890000000
Si      7.832891700000000      0.885583760000000      2.460454320000000
C       9.224332909999999      1.894561290000000      3.079847350000000
Si      7.692045210000000      2.594141400000000     -0.060540150000000
C       9.178682000000000      3.491948690000000      0.714679440000000
Si      9.050387890000000      3.789074510000000      2.356442920000000
C      10.809441489999999      4.662124510000000      3.035246420000000
Si      9.327231500000000      5.235267170000000     -0.192209720000000
C      10.895500230000000      6.156279750000000      0.583100840000000
Si     10.618247530000000      6.433052910000000      2.345624710000000
C      12.369675689999999      7.106945400000000      3.016429550000000
36

Si      0.206073720000000     -0.079975170000000      0.119041320000000
C       1.507166130000000      0.991654980000000      0.812081960000000
Si      1.639117540000000      0.758501620000000      2.738933050000000
C       3.262264650000000      1.592438930000000      3.394062770000000
Si      1.649750110000000      2.705026420000000     -0.036856670000000
C       3.135069840000000      3.630403260000000      0.631293870000000
Si      3.300263250000000      3.671332520000000      2.468177440000000
C       5.036699290000000      4.395552600000000      3.299626690000000
Si      2.790517310000000      5.480372420000000      0.419686880000000
C       4.652155830000000      6.319755140000000      0.708542000000000
Si      4.827154090000000      6.214691820000000      2.768769530000000
C       6.222202120000000      7.193754110000000      3.406861400000000
Si      3.087206540000000      0.145648720000000      0.058411190000000
C       4.516616070000000      1.054195770000000      0.618551170000000
Si      4.535966940000000      0.983813220000000      2.374715750000000
C       6.056300860000000      1.689035860000000      3.186237620000000
Si      4.607151600000000      2.871548070000000     -0.206098620000000
C       6.142830600000000      3.621744980000000      0.556053360000000
Si      6.356584390000000      3.532399870000000      2.474786150000000
C       7.913374790000000      4.513667040000000      2.964502640000000
Si      6.255371060000000      5.347565520000000      0.060531940000000
C       7.631659460000000      6.324721980000000      0.807537160000000
Si      7.790540590000000      6.378149970000000      2.674235750000000
C       9.391643470000000      7.093259220000000      3.065693630000000
Si      6.142167870000000      0.219599750000000     -0.126698930000000
C       7.630582730000000      0.955603130000000      0.497503750000000
Si      7.547624960000000      0.529976460000000      2.334056210000000
C       9.504759620000000      1.681270580000000      3.218524630000000
Si      7.481588080000000      2.723746760000000     -0.264334160000000
C       9.240432070000001      3.491105000000000      0.593014260000000
Si      9.239835650000000      3.272811230000000      2.389782530000000
C      11.053877410000000      4.473144900000000      3.094169660000000
Si      9.157301850000000      5.412939750000000     -0.001835560000000
C      10.770371960000000      6.475520440000000      0.856976300000000
Si     10.747022400000001      6.158411470000000      2.526004740000000
C      12.302160560000001      6.963116350000000      3.220822410000000
36

Si      0.017365340000000     -0.007701980000000     -0.112895840000000
C       1.612572610000000      0.887603580000000      0.733331000000000
Si      1.425952770000000      0.814352740000000      2.447278250000000
C       2.995195830000000      1.817513150000000      3.196874850000000
Si      1.511654370000000      2.585959710000000      0.013670880000000
C       3.039504970000000      3.541789820000000      0.660843010000000
Si      3.013851790000000      3.587136410000000      2.444317860000000
C       4.567999440000000      4.268872810000000      3.232643740000000
Si      3.111713910000000      5.323840000000000      0.049379520000000
C       4.785035780000000      6.187086170000000      0.668879210000000
Si      4.820579500000000      6.133925700000000      2.636829670000000
C       6.226814220000000      7.087861380000000      3.219255980000000
Si      3.167946300000000      0.124596780000000     -0.107340830000000
C       4.622196360000000      0.838162100000000      0.572193380000000
Si      4.681737260000000      1.023880470000000      2.506572300000000
C       6.142427250000000      1.921621540000000      3.101400130000000
Si      4.609439000000000      2.721255140000000      0.021599880000000
C       6.355029910000000      3.627444240000000      0.712546820000000
Si      6.060490220000000      3.730907350000000      2.558202650000000
C       7.609738680000000      4.583159410000000      3.267417900000000
Si      6.220573790000000      5.389913270000000      0.019364340000000
C       7.694059070000000      6.197851230000000      0.613996460000000
Si      7.888670970000000      6.303658110000000      2.535935250000000
C       9.434750820000000      7.273110020000000      3.144430650000000
Si      6.205816540000000     -0.047536570000000      0.073129610000000
C       7.705292530000000      0.861070000000000      0.625149640000000
Si      7.629799250000000      0.850862140000000      2.582020000000000
C       9.006755719999999      1.851969290000000      3.183685490000000
Si      7.784805180000000      2.738526540000000      0.175282140000000
C       9.309539140000000      3.489961890000000      0.701171530000000
Si      9.236532840000001      3.581483270000000      2.637781630000000
C      10.825505590000001      4.479736350000000      3.293274770000000
Si      9.333937360000000      5.258713150000000     -0.120914720000000
C      10.795482340000000      6.199410620000000      0.458554880000000
Si     10.934397909999999      6.345101410000000      2.578641160000000
C      12.554741030000001      7.036330650000000      3.154632400000000
36

Si     -0.090023270000000     -0.048986260000000     -0.034893800000000
C       1.401763810000000      0.893575250000000      0.700660810000000
Si      1.552836370000000      0.900652950000000      2.575941970000000
C       3.060649760000000      1.782859000000000      3.128008490000000
Si      1.582193590000000      2.599369810000000     -0.049383140000000
C       3.024763230000000      3.627671540000000      0.692151630000000
Si      3.123347190000000      3.573689680000000      2.635552100000000
C       4.643870090000000      4.420684490000000      3.194406270000000
Si      3.175712880000000      5.305108360000000      0.056597350000000
C       4.640155570000000      6.262827920000000      0.676209520000000
Si      4.799404290000000      6.274188210000000      2.523126910000000
C       6.296476820000000      7.151248180000000      3.221672220000000
Si      3.008687600000000      0.002025330000000     -0.030473290000000
C       4.551037430000000      0.932596990000000      0.646754980000000
Si      4.619120220000000      0.957130710000000      2.527567430000000
C       6.118000370000000      1.816270010000000      3.128062610000000
Si      4.622243190000000      2.769596210000000     -0.023823560000000
C       6.092172610000000      3.701681000000000      0.659662220000000
Si      6.156033720000000      3.628381550000000      2.510361420000000
C       7.820401180000000      4.458064690000000      3.185654930000000
Si      6.186389680000000      5.476559620000000      0.019429860000000
C       7.773881820000000      6.227968290000000      0.619597760000000
Si      7.842768590000000      6.196330810000000      2.588408650000000
C       9.323340330000001      7.215970810000000      3.178363470000000
Si      6.080801800000000      0.023759510000000     -0.014250590000000
C       7.667612540000000      0.941681140000000      0.737351530000000
Si      7.819968690000000      0.867068520000000      2.629070680000000
C       9.254156500000001      1.758022270000000      3.219211500000000
Si      7.614901240000000      2.642733240000000      0.013075260000000
C       9.348065890000001      3.473744190000000      0.587676910000000
Si      9.432861030000000      3.566797440000000      2.412018010000000
C      10.801278370000000      4.422441510000000      3.183839840000000
Si      9.371086080000000      5.305705550000000      0.008725570000000
C      10.889503780000000      6.299337560000000      0.681121030000000
Si     10.844674200000000      6.271354980000000      2.546039650000000
C      12.370340929999999      7.108594400000000      3.206885080000000
36

Si      0.025061900000000      0.076500540000000      0.071181370000000
C       1.620610920000000      0.874422070000000      0.623413720000000
Si      1.718417070000000      0.882119890000000      2.610931510000000
C       3.195968330000000      1.965266210000000      3.263026630000000
Si      1.519503070000000      2.682737870000000     -0.015945620000000
C       3.119580950000000      3.567034070000000      0.730183200000000
Si      3.128938620000000      3.581008790000000      2.551645160000000
C       4.695834230000000      4.463254520000000      3.129979270000000
Si      3.017582500000000      5.339616740000000      0.085980190000000
C       4.586976380000000      6.312874610000000      0.580779890000000
Si      4.721080560000000      6.201734390000000      2.482555540000000
C       6.104798320000000      7.160546070000000      3.244480780000000
Si      3.085347670000000     -0.071307860000000      0.053486800000000
C       4.614532950000000      0.906238770000000      0.622734970000000
Si      4.722615260000000      1.029190180000000      2.442971200000000
C       6.180103280000000      1.789986010000000      3.193981970000000
Si      4.638443780000000      2.676689840000000     -0.004695050000000
C       6.118927430000000      3.608072080000000      0.649249670000000
Si      6.208121690000000      3.650876950000000      2.580609310000000
C       7.827912330000000      4.469502380000000      3.206813040000000
Si      6.063589430000000      5.288547710000000     -0.068604760000000
C       7.680081040000000      6.223691400000000      0.624812070000000
Si      7.652244650000000      6.209978100000000      2.547153300000000
C       9.261373720000000      7.197463160000000      3.103075990000000
Si      6.223858480000000     -0.058374530000000     -0.052305500000000
C       7.710932190000000      0.910299260000000      0.737656890000000
Si      7.715915150000000      0.936803810000000      2.557607880000000
C       9.392393020000000      1.771607480000000      3.166547350000000
Si      7.717159740000000      2.696658620000000      0.008798510000000
C       9.186598020000000      3.527108200000000      0.658533360000000
Si      9.323835290000000      3.505885950000000      2.476698190000000
C      10.850801600000000      4.466746120000000      3.135910810000000
Si      9.304247910000001      5.337079730000000      0.046660170000000
C      10.783545500000001      6.261960440000000      0.669684680000000
Si     10.827294710000000      6.287846750000000      2.554419750000000
C      12.449896200000000      7.154491040000000      3.222112770000000
36

Si      0.017330030000000      0.066106440000000     -0.147636430000000
C       1.456883940000000      1.040194950000000      0.604000220000000
Si      1.533807430000000      0.961871180000000      2.488347890000000
C       3.207944210000000      1.721245030000000      3.012887660000000
Si      1.675927140000000      2.708686880000000     -0.030290490000000
C       3.095827100000000      3.605076670000000      0.586057500000000
Si      3.256590280000000      3.519191680000000      2.520075960000000
C       4.656613480000000      4.602985190000000      3.234012790000000
Si      3.084446430000000      5.453321520000000      0.042489760000000
C       4.768413620000000      6.293780410000000      0.690979820000000
Si      4.593964480000000      6.379718830000000      2.612708810000000
C       6.108695580000000      7.080569150000000      3.234294140000000
Si      2.903275780000000     -0.022664260000000     -0.018718280000000
C       4.685964300000000      0.871083210000000      0.785809840000000
Si      4.700775670000000      0.736169500000000      2.494399440000000
C       6.077100640000000      1.774912840000000      3.180630680000000
Si      4.612301970000000      2.669511720000000      0.030056870000000
C       6.326933170000000      3.554001690000000      0.786454100000000
Si      6.164114930000000      3.495795980000000      2.557978620000000
C       7.809220220000000      4.430623900000000      3.132179520000000
Si      6.087041520000000      5.349122160000000     -0.033364010000000
C       7.744687560000000      6.277797530000000      0.632444480000000
Si      7.535882790000000      6.228672570000000      2.512626560000000
C       9.116291380000000      7.070567980000000      3.220010280000000
Si      6.046384030000000      0.049175550000000     -0.092894070000000
C       7.799176800000000      0.829287370000000      0.622169930000000
Si      7.766551780000000      0.842353130000000      2.356781650000000
C       9.199491640000000      1.777121760000000      3.182292740000000
Si      7.913404640000000      2.707363970000000      0.114902110000000
C       9.397396600000000      3.535801450000000      0.741738440000000
Si      9.524889600000000      3.409511170000000      2.682629180000000
C      11.090154230000000      4.419463940000000      3.177099270000000
Si      9.292257220000000      5.453868760000000      0.159295320000000
C      10.915483920000000      6.423409360000000      0.759769600000000
Si     10.758787790000000      6.280543060000000      2.568951170000000
C      12.264868970000000      7.241440320000000      3.239249790000000
36

Si     -0.109333670000000      0.036173210000000     -0.159953490000000
C       1.554839680000000      0.810186470000000      0.450750620000000
Si      1.471161370000000      0.785520660000000      2.511845530000000
C       3.092742630000000      1.842050290000000      3.132115520000000
Si      1.525063070000000      2.668136650000000      0.007915660000000
C       3.124358300000000      3.565297190000000      0.683087720000000
Si      3.059924540000000      3.604074090000000      2.568381950000000
C       4.668377480000000      4.464047950000000      3.127013800000000
Si      3.087824680000000      5.394911350000000      0.027252670000000
C       4.656799120000000      6.306782880000000      0.551157570000000
Si      4.664511150000000      6.275478380000000      2.492223130000000
C       6.175958920000000      7.071026910000000      3.177063550000000
Si      3.115219770000000     -0.057242070000000      0.064400750000000
C       4.660077130000000      0.932599020000000      0.660647730000000
Si      4.680740040000000      0.874145400000000      2.534975630000000
C       6.184807470000000      1.726407620000000      3.169912840000000
Si      4.678464990000000      2.705348090000000     -0.002121840000000
C       6.152745540000000      3.650528850000000      0.600951750000000
Si      6.120898740000000      3.550296310000000      2.505703060000000
C       7.807447000000000      4.350832860000000      3.167764300000000
Si      6.262814740000000      5.467549910000000      0.073421960000000
C       7.874665340000000      6.272566090000000      0.666666860000000
Si      7.805736790000000      6.207726820000000      2.649064470000000
C       9.293649250000000      7.142198920000000      3.246246090000000
Si      6.211450160000000      0.020165520000000     -0.027807320000000
C       7.710700220000000      0.920334470000000      0.727413800000000
Si      7.673111030000000      0.914147970000000      2.576634820000000
C       9.322477070000000      1.749921670000000      3.182557360000000
Si      7.766163960000000      2.774911160000000      0.066373760000000
C       9.281110590000001      3.547696170000000      0.699486350000000
Si      9.350338850000000      3.514931430000000      2.579825970000000
C      10.839577909999999      4.473851810000000      3.212325710000000
Si      9.362056259999999      5.334791650000000      0.050781340000000
C      10.847122610000000      6.289459270000000      0.636954040000000
Si     10.761781800000000      6.334082410000000      2.526969720000000
C      12.426469320000001      7.160391120000000      3.197887000000000
36

Si      0.091799910000000      0.005240460000000      0.052058600000000
C       1.580770200000000      0.855763360000000      0.739715750000000
Si      1.637687390000000      0.888651130000000      2.566332410000000
C       3.142265910000000      1.723962870000000      3.135970270000000
Si      1.592594100000000      2.627896830000000      0.003159980000000
C       3.068579600000000      3.627891760000000      0.663698220000000
Si      3.091977230000000      3.605200700000000      2.622669750000000
C       4.606867960000000      4.539792310000000      3.181071960000000
Si      3.090967830000000      5.358213970000000      0.035504650000000
C       4.670171280000000      6.279799540000000      0.636409370000000
Si      4.605985020000000      6.402586810000000      2.539614390000000
C       6.223650780000000      7.168975440000000      3.135107040000000
Si      3.149477960000000     -0.039390160000000      0.035398410000000
C       4.655117080000000      0.864271790000000      0.671386400000000
Si      4.750968390000000      0.842905430000000      2.502201560000000
C       6.204144620000000      1.726487120000000      3.170616480000000
Si      4.646656940000000      2.662417810000000     -0.006874730000000
C       6.145503580000000      3.620771600000000      0.647707910000000
Si      6.193724030000000      3.599386060000000      2.503594240000000
C       7.734712810000000      4.506157540000000      3.179589880000000
Si      6.218778990000000      5.357454100000000     -0.049775820000000
C       7.619505510000000      6.229175790000000      0.615871370000000
Si      7.608123870000000      6.191782160000000      2.512784060000000
C       9.164931800000000      7.146942740000000      3.132083890000000
Si      6.250232820000000      0.040046070000000      0.048695030000000
C       7.824135450000000      0.911526030000000      0.697899940000000
Si      7.855302010000000      0.884077780000000      2.583536440000000
C       9.332324910000001      1.780575840000000      3.260394280000000
Si      7.756855850000000      2.641736360000000      0.071667550000000
C       9.334913300000000      3.555627660000000      0.615003420000000
Si      9.313004030000000      3.602809860000000      2.468399020000000
C      10.754066820000000      4.458340350000000      3.247674860000000
Si      9.193364030000000      5.342169840000000     -0.033811350000000
C      10.790937830000001      6.304524390000000      0.631153760000000
Si     10.712605999999999      6.303818590000000      2.496501100000000
C      12.184888000000001      7.181704470000000      3.148993010000000
36

Si     -0.080261390000000     -0.018332860000000     -0.113409880000000
C       1.428529690000000      0.842769460000000      0.583067210000000
Si      1.488782050000000      0.807778190000000      2.506911680000000
C       3.050026540000000      1.789692370000000      3.150165200000000
Si      1.408648360000000      2.584445050000000      0.092654360000000
C       2.999394550000000      3.544416080000000      0.544161780000000
Si      2.988534130000000      3.516290140000000      2.522492260000000
C       4.460573330000000      4.483886410000000      3.202475950000000
Si      3.080431460000000      5.373939410000000      0.020509470000000
C       4.714130380000000      6.247520320000000      0.563979330000000
Si      4.737758900000000      6.151765120000000      2.631675240000000
C       6.188674490000000      7.023453500000000      3.235674830000000
Si      3.123084170000000      0.226542660000000      0.025256240000000
C       4.618293410000000      0.938475970000000      0.673609630000000
Si      4.620583460000000      1.026028600000000      2.592198930000000
C       6.441041330000000      1.951232070000000      3.210239980000000
Si      4.600873270000000      2.760771080000000     -0.000972090000000
C       6.225459660000000      3.671850040000000      0.782796770000000
Si      6.248750240000000      3.621074820000000      2.629709920000000
C       7.716985530000000      4.544625990000000      3.188908180000000
Si      6.313868270000000      5.396525190000000     -0.143732770000000
C       7.765197320000000      6.450089170000000      0.432030220000000
Si      7.686013660000000      6.186895080000000      2.342721290000000
C       9.268317470000000      7.207758450000000      3.122583230000000
Si      6.182631690000000     -0.057553470000000      0.028766720000000
C       7.662388380000000      0.829160590000000      0.738451970000000
Si      7.839031940000000      0.709809250000000      2.457488950000000
C       9.551469170000001      1.778162830000000      3.342961680000000
Si      7.672122850000000      2.713280180000000      0.138546240000000
C       9.279521790000000      3.605461360000000      0.721252050000000
Si      9.359509510000001      3.521495620000000      2.668244550000000
C      10.770194220000000      4.446475030000000      3.202768840000000
Si      9.440030399999999      5.378134440000000     -0.046535220000000
C      11.012604130000000      6.302592230000000      0.671310180000000
Si     10.824351350000001      6.274895730000000      2.573284750000000
C      12.411653480000000      7.159561240000000      3.204343690000000
36

Si     -0.070531740000000      0.064265970000000      0.078878540000000
C       1.567989200000000      0.784009540000000      0.658041590000000
Si      1.710028890000000      0.931336100000000      2.521183240000000
C       3.170082930000000      1.959144530000000      2.977419500000000
Si      1.655589010000000      2.761156460000000      0.026516920000000
C       3.156076520000000      3.707333370000000      0.520276120000000
Si      3.171601450000000      3.821872120000000      2.567365610000000
C       4.772099580000000      4.427788450000000      3.197549650000000
Si      3.000716140000000      5.403608140000000     -0.063597650000000
C       4.616244370000000      6.343766860000000      0.557080830000000
Si      4.626419890000000      6.125409200000000      2.544933920000000
C       6.007904040000000      7.141450290000000      3.164878000000000
Si      3.014185600000000     -0.026866310000000     -0.117427560000000
C       4.510023670000000      0.853328750000000      0.400498720000000
Si      4.602757670000000      0.871070020000000      2.459984810000000
C       6.226102080000000      1.651600880000000      3.020104090000000
Si      4.661916060000000      2.648407180000000      0.213828590000000
C       6.181783110000000      3.544310790000000      0.574224460000000
Si      6.415531750000000      3.579370000000000      2.562125550000000
C       7.930494190000000      4.247981780000000      3.268995260000000
Si      6.006229740000000      5.270528560000000     -0.015377600000000
C       7.685477200000000      6.022186650000000      0.628824420000000
Si      7.587145800000000      6.229090240000000      2.553624030000000
C       9.178314530000000      7.191820020000000      3.083999590000000
Si      6.109015090000000     -0.062156780000000     -0.038897160000000
C       7.734173780000000      0.874140380000000      0.676543500000000
Si      7.763911820000000      0.779290250000000      2.538090730000000
C       9.533577540000000      1.777053460000000      3.068536010000000
Si      7.796621210000000      2.658803260000000      0.051221620000000
C       9.352381800000000      3.483916240000000      0.708785490000000
Si      9.377065660000000      3.664641790000000      2.583844770000000
C      10.830552559999999      4.600134120000000      3.238270030000000
Si      9.343117769999999      5.447967620000000      0.143781180000000
C      10.930187730000000      6.407276620000000      0.782777800000000
Si     10.724497019999999      6.308735480000000      2.654398280000000
C      12.272010150000000      7.092027040000000      3.252065110000000
36

Si     -0.108314680000000      0.360795670000000     -0.170105210000000
C       1.304424390000000      1.003707860000000      0.590374300000000
Si      1.380283070000000      0.683140010000000      2.591039600000000
C       2.842820470000000      1.624212330000000      3.061900250000000
Si      1.715308380000000      2.732895650000000     -0.140443770000000
C       3.128046430000000      3.630309840000000      0.787376620000000
Si      3.346381870000000      3.469671760000000      2.403538540000000
C       5.104164580000000      4.222840170000000      3.223917840000000
Si      3.221905080000000      5.398748340000000      0.112275030000000
C       4.521254050000000      6.595698380000000      0.699286680000000
Si      4.641830350000000      6.171200310000000      2.811031900000000
C       6.184361920000000      7.018686170000000      3.392077750000000
Si      2.958252920000000     -0.074644810000000     -0.075367940000000
C       4.343866240000000      0.862964850000000      0.506284910000000
Si      4.564181820000000      0.955706480000000      2.345017320000000
C       6.169441110000000      1.826712920000000      3.048461420000000
Si      4.560237570000000      2.723446490000000     -0.019111950000000
C       6.332688900000000      3.831631570000000      0.696994600000000
Si      6.448842680000000      3.508087980000000      2.361252290000000
C       8.022752470000000      4.437048040000000      2.999182980000000
Si      6.154135400000000      5.609767420000000      0.136918110000000
C       7.782750270000000      6.307877530000000      0.888200810000000
Si      7.856756520000000      6.320692120000000      2.756429970000000
C       9.377355590000001      7.264530860000000      3.111796780000000
Si      6.010382980000000     -0.075954440000000     -0.094311130000000
C       7.580740540000000      0.873380330000000      0.719258240000000
Si      7.746918510000000      0.916543950000000      2.579426530000000
C       9.291678570000000      1.682753770000000      3.234344390000000
Si      7.608325070000000      2.831175310000000     -0.035665660000000
C       9.334671459999999      3.523790750000000      0.485603830000000
Si      9.485797010000001      3.367441940000000      2.539630100000000
C      11.013289770000000      4.118527170000000      3.207442260000000
Si      9.193928670000000      5.343951650000000      0.069376030000000
C      10.688801079999999      6.221415380000000      0.705747470000000
Si     10.797777510000000      6.223820480000000      2.746712060000000
C      12.428672180000000      7.086665540000000      3.231630900000000
36

Si     -0.242210690000000      0.046863440000000     -0.146369740000000
C       1.378559020000000      0.834904280000000      0.506682700000000
Si      1.319284320000000      0.784576620000000      2.379669700000000
C       2.808282990000000      1.780170630000000      2.911121900000000
Si      1.597910180000000      2.528930730000000      0.251179560000000
C       3.298198550000000      3.655126660000000      0.631832260000000
Si      3.356250500000000      3.411026030000000      2.539774910000000
C       4.734024950000000      4.409250820000000      3.215801010000000
Si      3.381986650000000      5.358466060000000      0.139534200000000
C       4.779698840000000      6.518142290000000      0.634472770000000
Si      4.611476380000000      6.155952500000000      2.454667950000000
C       6.192806870000000      7.113741370000000      3.329045100000000
Si      3.098043260000000      0.022691730000000     -0.119960600000000
C       4.548257980000000      1.015920770000000      0.675581730000000
Si      4.490143590000000      0.962933800000000      2.593783200000000
C       6.115345830000000      1.747835320000000      3.053055530000000
Si      4.846303180000000      2.662813200000000     -0.028698480000000
C       6.273441520000000      3.725126250000000      0.671818260000000
Si      6.254304350000000      3.828062110000000      2.518079550000000
C       7.875223410000000      4.427219480000000      3.101952430000000
Si      6.259077050000000      5.427531390000000      0.099460660000000
C       7.851970050000000      6.384283280000000      0.581457440000000
Si      7.755150680000000      6.377644130000000      2.673191730000000
C       9.380381890000001      7.387435920000000      3.131388440000000
Si      6.079260800000000      0.023484260000000      0.093880410000000
C       7.779727020000000      1.029221710000000      0.623126430000000
Si      7.375713280000000      0.590518510000000      2.481754280000000
C       9.028521189999999      1.624995710000000      3.088904480000000
Si      7.774804170000000      2.762723350000000      0.072344180000000
C       9.235654390000001      3.509323500000000      0.678819280000000
Si      9.393518230000000      3.460221520000000      2.528384570000000
C      11.028784220000000      4.531641170000000      3.249705950000000
Si      9.509407530000001      5.449058940000000      0.073496610000000
C      10.757748599999999      6.197540430000000      0.743790080000000
Si     10.666311420000000      6.287064390000000      2.563014790000000
C      12.516556200000000      7.002985860000000      3.177809900000000
36

Si      0.046984730000000      0.044748040000000      0.047940320000000
C       1.520579160000000      0.873041580000000      0.709960590000000
Si      1.525103710000000      0.935367050000000      2.666405160000000
C       3.104527300000000      1.830971080000000      3.201822370000000
Si      1.488383160000000      2.675083360000000      0.005076390000000
C       3.159926530000000      3.540580610000000      0.686687720000000
Si      3.098287120000000      3.534829020000000      2.558285700000000
C       4.614035620000000      4.454088250000000      3.157581280000000
Si      3.202482810000000      5.385840530000000      0.093112660000000
C       4.729096230000000      6.248528850000000      0.622727610000000
Si      4.656998610000000      6.261921710000000      2.613601160000000
C       6.112992450000000      7.191690220000000      3.227700160000000
Si      3.069549310000000      0.122467480000000      0.024969230000000
C       4.625725000000000      0.964541780000000      0.640290460000000
Si      4.731350370000000      0.830546090000000      2.451110870000000
C       6.146101770000000      1.722314380000000      3.168162010000000
Si      4.689012940000000      2.652582670000000      0.004995910000000
C       6.211238320000000      3.549028260000000      0.550326810000000
Si      6.221081200000000      3.576828580000000      2.501639110000000
C       7.746113100000000      4.545411280000000      3.199982460000000
Si      6.299020630000000      5.295795110000000     -0.074351570000000
C       7.776079800000000      6.318221200000000      0.639072040000000
Si      7.652339580000000      6.269045020000000      2.477533860000000
C       9.311345390000000      7.099995520000000      3.137084900000000
Si      6.176665630000000     -0.031393540000000      0.055159830000000
C       7.754819090000000      0.902746960000000      0.673626590000000
Si      7.731097330000000      0.890020170000000      2.528177110000000
C       9.222381400000000      1.791697920000000      3.217157280000000
Si      7.791752890000000      2.670253260000000     -0.063201380000000
C       9.129828050000000      3.566977910000000      0.746563560000000
Si      9.169580849999999      3.571873290000000      2.568344680000000
C      10.806796700000000      4.470925770000000      3.078076410000000
Si      9.328810460000000      5.436965180000000      0.027940890000000
C      10.906865310000001      6.261216960000000      0.638559610000000
Si     10.808878580000000      6.209303200000000      2.494118270000000
C      12.329093650000001      7.115068040000000      3.146680380000000
36

Si      0.079983630000000     -0.006593740000000      0.039111860000000
C       1.525425460000000      0.985428640000000      0.825765140000000
Si      1.569374170000000      1.031081430000000      2.626526140000000
C       3.180374420000000      1.702419110000000      3.087850620000000
Si      1.497697230000000      2.696767020000000     -0.047732070000000
C       3.062215340000000      3.554043240000000      0.638716830000000
Si      3.089931760000000      3.575550580000000      2.590112730000000
C       4.631217460000000      4.461829990000000      3.149488860000000
Si      3.082562890000000      5.376913800000000      0.056408410000000
C       4.648202570000000      6.218555780000000      0.706213830000000
Si      4.681697430000000      6.226248950000000      2.533884500000000
C       6.187053400000000      7.248178910000000      3.239436450000000
Si      3.054386300000000     -0.046127910000000     -0.014316650000000
C       4.663252380000000      0.820184790000000      0.597293620000000
Si      4.774821260000000      0.849316580000000      2.472802890000000
C       6.232250270000000      1.856060440000000      3.186432640000000
Si      4.668829600000000      2.625548180000000      0.042467820000000
C       6.250962880000000      3.526073930000000      0.681031560000000
Si      6.288880880000000      3.602328830000000      2.536080810000000
C       7.746539880000000      4.578400360000000      3.152261500000000
Si      6.159118370000000      5.302877690000000     -0.076459150000000
C       7.578347520000000      6.183917390000000      0.664993050000000
Si      7.666583200000000      6.353702710000000      2.492796460000000
C       9.286414120000000      7.138420230000000      3.145367070000000
Si      6.234426970000000     -0.008169950000000      0.026107670000000
C       7.781457370000000      0.857683490000000      0.589330440000000
Si      7.762399820000000      0.882581700000000      2.599088840000000
C       9.252477060000000      1.834903480000000      3.241426970000000
Si      7.727593020000000      2.599703930000000      0.045524920000000
C       9.297363750000001      3.624891290000000      0.606281060000000
Si      9.305871600000000      3.607499870000000      2.481142630000000
C      10.780970379999999      4.501219150000000      3.236849490000000
Si      9.197427890000000      5.416614060000000      0.054912630000000
C      10.846980040000000      6.259458800000000      0.625111690000000
Si     10.812281080000000      6.231093100000000      2.474432520000000
C      12.334404070000000      7.130778220000000      3.180369250000000
36

Si     -0.121660970000000     -0.151524320000000     -0.143910770000000
C       1.356357200000000      0.709873810000000      0.464655930000000
Si      1.450348440000000      0.827972250000000      2.368341300000000
C       2.999059470000000      1.779141180000000      3.137056690000000
Si      1.455935370000000      2.567071690000000     -0.047418530000000
C       3.016366620000000      3.551045920000000      0.734289400000000
Si      3.032610500000000      3.551737920000000      2.638787680000000
C       4.517143880000000      4.405242320000000      3.099631120000000
Si      3.194369680000000      5.245748900000000      0.019284640000000
C       4.630895360000000      6.294905740000000      0.648516280000000
Si      4.595288750000000      6.254465160000000      2.454736660000000
C       6.172191490000000      7.178114790000000      3.113112440000000
Si      3.120347660000000      0.070337770000000      0.068397930000000
C       4.489194980000000      0.984238340000000      0.728756690000000
Si      4.553807890000000      1.089016990000000      2.598492100000000
C       6.302128850000000      1.798393370000000      3.142539750000000
Si      4.590571130000000      2.735591000000000      0.063046810000000
C       6.094629550000000      3.563602660000000      0.554532930000000
Si      6.157497790000000      3.579857970000000      2.539342880000000
C       7.559050540000000      4.520420760000000      3.160025180000000
Si      6.153449490000000      5.437794290000000     -0.033393250000000
C       7.763415790000000      6.361354560000000      0.583373550000000
Si      7.811948700000000      6.339340060000000      2.370815740000000
C       9.446316800000000      7.321569430000000      3.002523070000000
Si      6.266063050000000     -0.026397420000000      0.048882860000000
C       7.715274160000000      0.882588020000000      0.711224690000000
Si      7.890743950000000      0.887664930000000      2.710965670000000
C       9.422047360000001      1.564323340000000      3.188513750000000
Si      7.913135760000000      2.592706700000000      0.130239810000000
C       9.348842560000000      3.645979120000000      0.783347210000000
Si      9.336635960000001      3.581789530000000      2.609212340000000
C      10.668420970000000      4.548339860000000      3.279987280000000
Si      9.427187390000000      5.321320730000000      0.103921670000000
C      11.054425400000000      6.189655950000000      0.743670810000000
Si     10.974130880000001      6.387593470000000      2.581268240000000
C      12.382803980000000      7.241763350000000      3.132110160000000
36

Si     -0.098010880000000     -0.065281120000000     -0.173350260000000
C       1.600159800000000      0.813059270000000      0.357606460000000
Si      1.597351060000000      0.865740270000000      2.262746520000000
C       3.124744980000000      1.638516150000000      2.995661790000000
Si      1.595654020000000      2.617398030000000      0.050032830000000
C       3.060273240000000      3.761116160000000      0.531535300000000
Si      2.843414670000000      3.678460220000000      2.489899600000000
C       4.432058090000000      4.482032660000000      3.144224780000000
Si      2.938184640000000      5.472234020000000     -0.179267520000000
C       4.571053560000000      6.284884220000000      0.467793750000000
Si      4.602301920000000      6.146640540000000      2.463974900000000
C       5.949168580000000      7.194744570000000      2.939338360000000
Si      3.183870870000000     -0.125288860000000      0.213777500000000
C       4.529016790000000      0.831171660000000      0.669857080000000
Si      4.674454580000000      0.835394340000000      2.579895320000000
C       6.195121930000000      1.727794850000000      3.302720930000000
Si      4.749027670000000      2.699863000000000      0.327405560000000
C       6.266407230000000      3.716970240000000      0.863854260000000
Si      6.048450310000000      3.303766470000000      2.686085890000000
C       7.426307720000000      4.377845560000000      3.184367070000000
Si      6.401075500000000      5.322590400000000     -0.142419520000000
C       7.973959140000000      6.212110470000000      0.674792110000000
Si      7.646651440000000      6.188753570000000      2.350603690000000
C       9.336774510000000      6.932602560000000      3.134519410000000
Si      6.363770350000000      0.047869450000000      0.032522570000000
C       7.760154450000000      1.216702800000000      0.974058790000000
Si      7.848455560000000      0.966483930000000      2.745371730000000
C       9.420964550000001      2.012711780000000      3.268695550000000
Si      7.981619210000000      2.729983320000000      0.282312700000000
C       9.337640510000000      3.647858710000000      0.801437350000000
Si      9.095660590000000      3.947350210000000      2.619430340000000
C      10.781637760000001      4.534778040000000      3.362907270000000
Si      9.356613350000000      5.214290920000000     -0.064168890000000
C      10.921024680000000      6.319126840000000      0.539789190000000
Si     10.925039970000000      6.259496240000000      2.500171340000000
C      12.366269330000000      7.272253810000000      3.078862250000000
36

Si     -0.064413010000000      0.054587570000000     -0.059529350000000
C       1.522670850000000      0.872458590000000      0.593389150000000
Si      1.472171180000000      0.867099900000000      2.487615450000000
C       3.008508480000000      1.868212800000000      3.129895570000000
Si      1.545564910000000      2.703183050000000     -0.006267680000000
C       3.175465830000000      3.524348210000000      0.630336120000000
Si      3.031336490000000      3.497815960000000      2.479390550000000
C       4.552866480000000      4.388107760000000      3.156991210000000
Si      3.150424210000000      5.349288470000000      0.103322710000000
C       4.744167500000000      6.257551130000000      0.637580560000000
Si      4.738290310000000      6.229281930000000      2.503706240000000
C       6.116440800000000      7.206391410000000      3.271553760000000
Si      3.093535900000000     -0.016607180000000      0.045099740000000
C       4.627112390000000      0.936405070000000      0.623658680000000
Si      4.628017510000000      0.890087100000000      2.462926790000000
C       6.104238660000000      1.722539380000000      3.223817650000000
Si      4.684796910000000      2.734554300000000     -0.011301780000000
C       6.192652350000000      3.601657200000000      0.624126460000000
Si      6.240343710000000      3.550662000000000      2.577197370000000
C       7.770211880000000      4.502896900000000      3.281473770000000
Si      6.339342850000000      5.382852340000000     -0.024991160000000
C       7.832843640000000      6.246426060000000      0.723161850000000
Si      7.708005590000000      6.240086070000000      2.660506490000000
C       9.316275040000001      7.224826860000000      3.144217060000000
Si      6.215965980000000      0.019672690000000     -0.019425740000000
C       7.695932530000000      0.988024730000000      0.667391250000000
Si      7.697178730000000      0.879327610000000      2.608375870000000
C       9.201165850000001      1.680994570000000      3.217332290000000
Si      7.774029530000000      2.713060600000000      0.027300460000000
C       9.251122570000000      3.618256140000000      0.730702780000000
Si      9.239920420000001      3.556939310000000      2.549827610000000
C      10.784425260000001      4.460718220000000      3.164863090000000
Si      9.374110940000000      5.386320360000000     -0.033501200000000
C      10.905875160000001      6.317731160000000      0.681513140000000
Si     10.843697669999999      6.240840110000000      2.540185630000000
C      12.347252210000001      7.153487270000000      3.151488720000000
36

Si      0.021394030000000      0.002393420000000     -0.152321500000000
C       1.480198920000000      0.844083790000000      0.542630280000000
Si      1.151225290000000      0.957241660000000      2.361412960000000
C       2.816286480000000      1.851866760000000      2.959372890000000
Si      1.427265320000000      2.610544380000000      0.048832340000000
C       3.056132950000000      3.656707500000000      0.539316980000000
Si      3.170730670000000      3.635754230000000      2.455961310000000
C       4.695356170000000      4.710174190000000      3.090614470000000
Si      3.077721360000000      5.316206450000000     -0.048978310000000
C       4.678951660000000      5.974834560000000      0.445536910000000
Si      4.787215400000000      6.262143450000000      2.230274790000000
C       5.880334680000000      7.263391980000000      2.986715620000000
Si      2.982737180000000     -0.063528900000000     -0.009046420000000
C       4.572645170000000      0.860108560000000      0.460895430000000
Si      4.452148640000000      1.077475410000000      2.439068510000000
C       5.919301010000000      1.772116410000000      3.190921480000000
Si      4.797635600000000      2.691501500000000      0.106344490000000
C       6.470307700000000      3.470249090000000      0.655321120000000
Si      6.317183150000000      3.664507690000000      2.734862740000000
C       7.840084970000000      4.322414890000000      3.158275460000000
Si      6.407576770000000      5.316787790000000     -0.020407070000000
C       7.904230330000000      6.397351740000000      0.749891730000000
Si      7.824369070000000      6.306510870000000      2.753384740000000
C       9.291947309999999      7.210442250000000      3.327346630000000
Si      6.230650330000000      0.030738890000000      0.014100820000000
C       7.743236200000000      0.981053590000000      0.727431960000000
Si      7.355809790000000      0.581805070000000      2.470649410000000
C       8.999171309999999      1.809584500000000      3.271534810000000
Si      7.972079770000000      2.631668660000000      0.067179090000000
C       9.443626520000000      3.641727210000000      0.794898430000000
Si      9.452498260000000      3.455072960000000      2.689092820000000
C      11.056455910000000      4.475368040000000      3.346219710000000
Si      9.373660180000000      5.508824910000000      0.127089440000000
C      10.955920230000000      6.355014820000000      0.868481860000000
Si     10.890991930000000      6.192648380000000      2.707999660000000
C      12.390466600000000      7.210141310000000      3.339185960000000
36

Si     -0.014904600000000     -0.126324510000000     -0.152742650000000
C       1.411697120000000      0.912868320000000      0.649955450000000
Si      1.541299600000000      0.873593610000000      2.446978170000000
C       3.053336310000000      1.688185910000000      2.989315970000000
Si      1.516830130000000      2.719952970000000     -0.043468380000000
C       3.064366880000000      3.642962410000000      0.677020900000000
Si      3.156277220000000      3.535293550000000      2.602670610000000
C       4.621107600000000      4.508289800000000      3.146878520000000
Si      3.046780940000000      5.350008910000000     -0.047243400000000
C       4.652504360000000      6.238640220000000      0.614273670000000
Si      4.661962630000000      6.283031930000000      2.456259020000000
C       6.163318430000000      7.197698510000000      3.184067430000000
Si      3.061657410000000     -0.028596340000000      0.079308790000000
C       4.578207430000000      0.938175160000000      0.673441780000000
Si      4.663094960000000      0.873054440000000      2.547580940000000
C       6.177579720000000      1.832171990000000      3.290129640000000
Si      4.566650940000000      2.704105890000000     -0.045784330000000
C       6.238719780000000      3.573468920000000      0.606913360000000
Si      6.187994010000000      3.587617820000000      2.553501860000000
C       7.693424390000000      4.545281970000000      3.201470400000000
Si      6.308229540000000      5.375096790000000      0.029866960000000
C       7.729823800000000      6.290280750000000      0.819245150000000
Si      7.728485150000000      6.235935130000000      2.657074640000000
C       9.399093460000000      7.170661930000000      3.218917230000000
Si      6.139140770000000      0.012352060000000     -0.009427390000000
C       7.770230680000000      0.791441310000000      0.506385420000000
Si      7.745557950000000      0.842392950000000      2.554921570000000
C       9.258035749999999      1.815754300000000      3.186633700000000
Si      7.778961610000000      2.593351300000000      0.083674320000000
C       9.312177500000001      3.704210790000000      0.650631700000000
Si      9.338698160000000      3.647376120000000      2.528767100000000
C      10.861425710000001      4.502967610000000      3.259218180000000
Si      9.297883360000000      5.456442830000000      0.085685200000000
C      10.873849420000001      6.272447710000000      0.620592620000000
Si     10.938422400000000      6.231698560000000      2.603926500000000
C      12.405602610000001      7.208979520000000      3.262270320000000
36

Si     -0.047040810000000     -0.010613120000000      0.026088240000000
C       1.496210690000000      0.878418340000000      0.579836580000000
Si      1.452338010000000      0.966361730000000      2.534861430000000
C       3.149484420000000      1.807507690000000      3.209616410000000
Si      1.492862430000000      2.672350970000000      0.046820800000000
C       3.043323700000000      3.572231040000000      0.698617980000000
Si      3.124175900000000      3.577286440000000      2.480719740000000
C       4.687640620000000      4.450442580000000      3.165420710000000
Si      3.139873340000000      5.345211820000000      0.114544080000000
C       4.662449520000000      6.195820390000000      0.649309600000000
Si      4.747855310000000      6.228734960000000      2.540723820000000
C       6.178543000000000      7.196983220000000      3.258067090000000
Si      3.016786470000000      0.001652010000000      0.015028840000000
C       4.589168660000000      0.890349500000000      0.611125380000000
Si      4.748214720000000      0.964179240000000      2.474357510000000
C       6.180741920000000      1.839289040000000      3.155889980000000
Si      4.632738560000000      2.593486070000000      0.013317380000000
C       6.131118890000000      3.530244870000000      0.609505770000000
Si      6.206937610000000      3.617471890000000      2.501288260000000
C       7.778959380000000      4.560816450000000      3.203227640000000
Si      6.237277660000000      5.219560130000000     -0.045487690000000
C       7.760066880000000      6.225763090000000      0.668229330000000
Si      7.800347220000000      6.406715800000000      2.607135110000000
C       9.376858040000000      7.125485460000000      3.198068130000000
Si      6.178786750000000      0.021245210000000      0.012011980000000
C       7.689895740000000      0.860765320000000      0.712585010000000
Si      7.694934550000000      0.922613330000000      2.567509690000000
C       9.274448710000000      1.918310010000000      3.149531690000000
Si      7.731080290000000      2.656033180000000     -0.019502160000000
C       9.242301270000000      3.546661170000000      0.688255460000000
Si      9.283080060000000      3.587737850000000      2.597456810000000
C      10.821755749999999      4.421703180000000      3.178520440000000
Si      9.320821660000000      5.303328600000000     -0.020083030000000
C      10.831451960000001      6.279361050000000      0.554836290000000
Si     10.854948680000000      6.251843550000000      2.519355390000000
C      12.479991340000000      7.162973710000000      3.185820030000000
36

Si      0.043210560000000      0.046340260000000      0.235251530000000
C       1.687355660000000      0.961897250000000      0.763014140000000
Si      1.812373270000000      1.034453810000000      2.582837060000000
C       3.328982900000000      1.612212530000000      3.366546280000000
Si      1.422908940000000      2.570689060000000     -0.042765300000000
C       2.795454250000000      3.498048240000000      0.737888200000000
Si      3.179160730000000      3.416403440000000      2.645979710000000
C       4.467341840000000      4.287914750000000      3.077917910000000
Si      2.980223090000000      5.223629570000000      0.140915040000000
C       4.564004230000000      6.300938030000000      0.690034150000000
Si      4.844592530000000      6.307018800000000      2.466691620000000
C       6.450608170000000      7.246558970000000      3.233482900000000
Si      3.287707090000000      0.092015830000000      0.255798420000000
C       4.819570410000000      1.297190530000000      0.709930740000000
Si      4.784809010000000      0.770788780000000      2.539370450000000
C       6.232629510000000      1.555702070000000      3.254502570000000
Si      4.512068140000000      2.824554480000000     -0.064545520000000
C       6.197418240000000      3.685452800000000      0.556448970000000
Si      5.961303150000000      3.330960290000000      2.525184390000000
C       7.550635250000000      4.377676090000000      3.266467550000000
Si      6.180958010000000      5.391919730000000      0.002860780000000
C       7.811947510000000      6.479195600000000      0.762398700000000
Si      7.704962710000000      6.188391790000000      2.470766080000000
C       9.526435290000000      7.250762450000000      3.373163040000000
Si      6.079972090000000      0.034190030000000      0.048982240000000
C       7.623161790000000      1.010787570000000      0.707047880000000
Si      7.869250860000000      0.821088800000000      2.415037480000000
C       9.392691299999999      1.619028720000000      3.309870250000000
Si      7.642970080000000      2.895994190000000     -0.024603010000000
C       9.225695099999999      3.733633410000000      0.512997350000000
Si      9.179357660000001      3.619735940000000      2.440683370000000
C      10.872271110000000      4.413921590000000      3.288608650000000
Si      9.061214450000000      5.616148540000000     -0.347889490000000
C      10.671602310000001      6.138695890000000      0.468230470000000
Si     10.877985920000000      6.074190520000000      2.438777850000000
C      12.603200680000000      7.149442030000000      2.951658290000000
36

Si     -0.125658250000000     -0.006269310000000     -0.104339810000000
C       1.589421510000000      0.838256900000000      0.536189750000000
Si      1.524542070000000      0.874627720000000      2.397470910000000
C       3.074286810000000      1.706693850000000      3.088142560000000
Si      1.529372480000000      2.695999000000000     -0.097996050000000
C       3.101632930000000      3.566326600000000      0.647473430000000
Si      3.061473650000000      3.618058250000000      2.564634370000000
C       4.708484530000000      4.514279960000000      3.140358810000000
Si      3.010965730000000      5.389724720000000     -0.011763190000000
C       4.686858100000000      6.267116170000000      0.607081720000000
Si      4.611723730000000      6.294777880000000      2.509194580000000
C       6.112671470000000      7.157419180000000      3.146000600000000
Si      3.073884520000000     -0.047183350000000      0.009511500000000
C       4.663900940000000      0.844221950000000      0.603937630000000
Si      4.705666290000000      0.826344480000000      2.526689340000000
C       6.183808520000000      1.728141640000000      3.237037880000000
Si      4.663975780000000      2.649309300000000      0.088381530000000
C       6.289686750000000      3.651310200000000      0.667134620000000
Si      6.259055350000000      3.565932430000000      2.631591040000000
C       7.777760740000000      4.394858180000000      3.201996270000000
Si      6.296106830000000      5.438615140000000      0.072781790000000
C       7.828174420000000      6.263207090000000      0.731501410000000
Si      7.751234420000000      6.185888680000000      2.624104530000000
C       9.253663730000000      7.130309190000000      3.241577050000000
Si      6.185594700000000      0.064100790000000     -0.010869290000000
C       7.713702560000000      0.925819230000000      0.635813960000000
Si      7.768819730000000      0.896973640000000      2.576432290000000
C       9.391166269999999      1.764155670000000      3.221861570000000
Si      7.706460520000000      2.688059500000000      0.076560850000000
C       9.270552950000001      3.547812430000000      0.604500520000000
Si      9.287529100000000      3.621684870000000      2.536698380000000
C      10.859545969999999      4.523777210000000      3.265282900000000
Si      9.313878490000000      5.354414880000000      0.014539520000000
C      10.893177919999999      6.336387190000000      0.723436530000000
Si     10.823260030000000      6.277331480000000      2.558333700000000
C      12.369062800000000      7.155274400000000      3.186934330000000
36

Si      0.034857610000000     -0.017450210000000     -0.019634230000000
C       1.479607480000000      0.918579960000000      0.545801350000000
Si      1.529029730000000      0.888438550000000      2.399852350000000
C       3.110307400000000      1.730409330000000      3.087131190000000
Si      1.532034340000000      2.698114610000000     -0.025059970000000
C       3.085250570000000      3.596877930000000      0.599660950000000
Si      3.090841150000000      3.565111520000000      2.560276700000000
C       4.608221630000000      4.448107300000000      3.097981600000000
Si      3.108156910000000      5.410760960000000     -0.015358820000000
C       4.590576840000000      6.353178230000000      0.679580540000000
Si      4.600292310000000      6.289840500000000      2.495524830000000
C       6.147550860000000      7.171005350000000      3.199096830000000
Si      3.236964170000000     -0.029509910000000     -0.012622590000000
C       4.684341770000000      0.908549400000000      0.702904920000000
Si      4.603763670000000      0.840428770000000      2.570110090000000
C       6.181386860000000      1.777361340000000      3.155977840000000
Si      4.756073530000000      2.681773170000000      0.074955040000000
C       6.252913780000000      3.636912340000000      0.719594440000000
Si      6.160220200000000      3.542834960000000      2.619170710000000
C       7.715329080000000      4.479908820000000      3.224333010000000
Si      6.196026720000000      5.374260200000000      0.071858190000000
C       7.631740030000000      6.192132780000000      0.627657460000000
Si      7.685915920000000      6.224143810000000      2.518856380000000
C       9.169091110000000      7.092653880000000      3.227294690000000
Si      6.258873270000000     -0.046107760000000     -0.000484280000000
C       7.799568860000000      0.875850550000000      0.678916200000000
Si      7.767113210000000      0.907173020000000      2.535894940000000
C       9.304597879999999      1.780914290000000      3.163896530000000
Si      7.816688140000000      2.697662530000000      0.040447970000000
C       9.319697840000000      3.655359630000000      0.628078060000000
Si      9.323616639999999      3.592263250000000      2.556452890000000
C      10.769219760000000      4.486367770000000      3.268557000000000
Si      9.305421930000000      5.411976270000000      0.046426950000000
C      10.892660749999999      6.256072230000000      0.628550390000000
Si     10.733587760000001      6.271499830000000      2.539849350000000
C      12.343662480000001      7.154294190000000      3.263967820000000
36

Si     -0.131285220000000     -0.034335520000000     -0.002094140000000
C       1.508502280000000      0.839447240000000      0.569232100000000
Si      1.482305660000000      0.946656560000000      2.486264980000000
C       2.900575630000000      1.687090070000000      3.227437140000000
Si      1.795742910000000      2.606800710000000     -0.086939950000000
C       3.350527320000000      3.716087180000000      0.507527070000000
Si      2.978017630000000      3.433061870000000      2.716856870000000
C       4.710530330000000      4.470138300000000      3.188055080000000
Si      3.219403580000000      5.250420790000000      0.014096200000000
C       4.759755480000000      6.172683560000000      0.657695190000000
Si      4.706636880000000      6.355364790000000      2.699009160000000
C       6.206681490000000      7.232143160000000      3.215443220000000
Si      3.002708330000000      0.153335680000000      0.000011300000000
C       4.607436700000000      1.067293710000000      0.454474790000000
Si      4.526588880000000      0.911452820000000      2.291488770000000
C       5.774632560000000      1.856944830000000      3.166149190000000
Si      4.905604370000000      2.810036270000000      0.041690710000000
C       6.640635640000000      3.602110940000000      0.575955940000000
Si      6.158457780000000      3.658844980000000      2.509372350000000
C       7.885925990000000      4.452518980000000      3.202937780000000
Si      6.410627870000000      5.574175890000000      0.125363290000000
C       7.807815980000000      6.557636020000000      0.706304380000000
Si      7.837014600000000      6.200497710000000      2.510016770000000
C       9.257373200000000      7.186624850000000      3.435119040000000
Si      5.971673790000000     -0.209440750000000     -0.114354960000000
C       7.443403620000000      0.756933280000000      0.533721910000000
Si      7.226865770000000      0.902619440000000      2.435310200000000
C       9.243434980000000      1.653865380000000      2.982315050000000
Si      8.010218110000000      2.553166540000000     -0.023730820000000
C       9.390618880000000      3.660343300000000      0.573819360000000
Si      9.329041170000000      3.368121880000000      2.689265310000000
C      10.974724680000000      4.459371370000000      3.218402200000000
Si      9.292516579999999      5.408894760000000      0.013685500000000
C      10.815157370000000      6.081214470000000      0.982284270000000
Si     10.766034690000000      6.282467580000000      2.753591320000000
C      12.395620350000000      7.368576460000000      3.062695560000000
36

Si     -0.266212310000000     -0.018075500000000     -0.223830670000000
C       1.263180530000000      0.803739280000000      0.311080570000000
Si      1.369658830000000      0.735802920000000      2.192876620000000
C       3.015158490000000      1.656706290000000      3.011754820000000
Si      1.526447760000000      2.598573730000000     -0.096769200000000
C       2.980379050000000      3.635607620000000      0.551046640000000
Si      3.165211110000000      3.755509180000000      2.429666190000000
C       4.705999460000000      4.593136570000000      3.150431820000000
Si      3.067979830000000      5.300298060000000     -0.261329590000000
C       4.354481710000000      6.336912570000000      0.571566860000000
Si      4.714008010000000      6.256187860000000      2.526125550000000
C       6.320575160000000      6.819166400000000      2.981287090000000
Si      3.035736980000000      0.196854350000000     -0.094401770000000
C       4.682259790000000      1.031268750000000      0.667401390000000
Si      4.542658200000000      0.876369450000000      2.605827160000000
C       6.073165970000000      1.984693780000000      3.162463680000000
Si      4.626315730000000      2.833608280000000      0.299143290000000
C       6.166967710000000      3.737442100000000      0.804605150000000
Si      6.300018770000000      3.655735530000000      2.572683280000000
C       7.851228640000000      4.364723740000000      3.441933700000000
Si      6.105398680000000      5.422267030000000     -0.077963750000000
C       7.720678530000000      6.261825320000000      0.592724850000000
Si      7.824360590000000      5.999123730000000      2.432300070000000
C       9.443960260000001      6.940702350000000      3.197863640000000
Si      6.228381020000000      0.033300130000000      0.111453730000000
C       7.674896680000000      0.987145590000000      0.912679620000000
Si      7.649591500000000      0.759914550000000      2.662405720000000
C       9.335484890000000      1.606545430000000      3.108791010000000
Si      7.914841630000000      2.940727620000000      0.236512330000000
C       9.590267130000001      3.581349360000000      0.716441230000000
Si      9.395698810000001      3.369583340000000      2.772911150000000
C      10.845107850000000      4.397404480000000      3.421143210000000
Si      9.400513340000000      5.558767730000000      0.246359960000000
C      10.882838630000000      6.262633490000000      0.607437220000000
Si     10.971617999999999      6.178301130000000      2.585680120000000
C      12.570179319999999      7.163638360000000      3.374533350000000
36

Si     -0.129751570000000      0.047500290000000     -0.080344860000000
C       1.485747360000000      0.892402670000000      0.512632060000000
Si      1.232105570000000      0.882359560000000      2.455882510000000
C       2.822370100000000      1.884909970000000      2.991395200000000
Si      1.511419240000000      2.604720030000000     -0.010080170000000
C       2.936020100000000      3.741190130000000      0.591717150000000
Si      3.278653890000000      3.599461060000000      2.478106730000000
C       4.707627710000000      4.378073290000000      3.145835730000000
Si      3.097272440000000      5.478163980000000     -0.019104970000000
C       4.741640780000000      6.100888760000000      0.553751890000000
Si      4.760287270000000      6.246830970000000      2.442557530000000
C       6.158724150000000      7.206377630000000      3.209844610000000
Si      2.905148040000000     -0.085193330000000      0.014512450000000
C       4.534506100000000      1.046412370000000      0.647335320000000
Si      4.458097970000000      0.959870590000000      2.369460920000000
C       6.028056260000000      1.748045380000000      3.102379900000000
Si      4.770271740000000      2.856879150000000      0.057085460000000
C       6.540418540000000      3.590830450000000      0.547901330000000
Si      6.392510740000000      3.757903170000000      2.600641550000000
C       8.037068079999999      4.594643740000000      3.234378640000000
Si      6.396170950000000      5.359222600000000      0.012905760000000
C       7.854313530000000      6.395353440000000      0.734365770000000
Si      7.773654490000000      6.241119960000000      2.786403330000000
C       9.141184250000000      7.361319770000000      3.333124820000000
Si      6.084360140000000      0.040879950000000      0.038089390000000
C       7.869190720000000      0.765355460000000      0.631891590000000
Si      7.412021100000000      0.603186600000000      2.475731120000000
C       8.899822840000001      1.642775820000000      3.012510530000000
Si      7.941655990000000      2.555967850000000     -0.033820940000000
C       9.347502840000001      3.627093390000000      0.652133280000000
Si      9.510755740000000      3.412166210000000      2.647104070000000
C      10.855098450000000      4.247472770000000      3.125125130000000
Si      9.442455620000000      5.542985250000000      0.067635360000000
C      10.653985960000000      6.441593090000000      0.818826870000000
Si     10.949724430000000      6.129754710000000      2.818308120000000
C      12.361759330000000      7.012159190000000      3.269045240000000
36

Si      0.063396000000000      0.084044000000000      0.200668540000000
C       1.582024990000000      0.884604200000000      0.664751130000000
Si      1.832595370000000      0.930501750000000      2.577944920000000
C       3.319236470000000      1.686506580000000      3.420286020000000
Si      1.367640850000000      2.609800270000000      0.177409660000000
C       2.780211660000000      3.423769650000000      0.807502570000000
Si      2.988929080000000      3.518116060000000      2.585413510000000
C       4.591322490000000      4.274769700000000      3.327445850000000
Si      3.111793430000000      5.551876790000000     -0.069789590000000
C       4.826765970000000      6.519690160000000      0.570099180000000
Si      4.557451860000000      6.269069130000000      2.625494940000000
C       6.504039710000000      7.076651340000000      3.290031850000000
Si      3.197547010000000     -0.137405700000000     -0.137510960000000
C       4.641009800000000      0.889271500000000      0.815762210000000
Si      5.004595180000000      0.841935430000000      2.603491670000000
C       6.478492150000000      1.787429650000000      3.147473480000000
Si      4.373417300000000      2.731633220000000      0.106578440000000
C       5.994609220000000      3.664452190000000      0.650659640000000
Si      6.014016850000000      3.609232630000000      2.495300820000000
C       7.752614610000000      4.496529170000000      3.267166260000000
Si      5.988361070000000      5.366357210000000      0.042050040000000
C       7.557127310000000      6.000316120000000      0.426265010000000
Si      7.599285890000000      6.029142260000000      2.384362550000000
C       9.223900210000000      7.125727830000000      2.846829140000000
Si      6.237271920000000      0.066170820000000      0.131294600000000
C       7.692405660000000      0.943434850000000      0.762440600000000
Si      8.076396530000000      1.078177120000000      2.601487320000000
C       9.802974680000000      1.877061670000000      2.979005470000000
Si      7.744890890000000      2.573547400000000     -0.080679740000000
C       9.215401540000000      3.627331110000000      0.639586500000000
Si      9.206894490000000      3.639816070000000      2.447017670000000
C      10.821217280000001      4.608946770000000      3.163567740000000
Si      9.201432840000001      5.319995540000000     -0.162757150000000
C      10.915110360000000      6.246437510000000      0.646645940000000
Si     10.783529220000000      6.288183390000000      2.474807500000000
C      12.299277130000000      7.224986640000000      2.965740090000000
36

Si      0.172447440000000     -0.028987640000000     -0.159881990000000
C       1.778092270000000      0.907645710000000      0.664041500000000
Si      1.496555650000000      0.860578450000000      2.591136430000000
C       3.320887440000000      1.964556260000000      3.015932410000000
Si      1.635352700000000      2.739622680000000     -0.100422040000000
C       3.108539700000000      3.456873250000000      0.515640860000000
Si      2.940952860000000      3.705150280000000      2.712065300000000
C       4.284306650000000      4.693260920000000      3.052190230000000
Si      3.018616680000000      5.069712990000000     -0.164556080000000
C       4.719599620000000      5.958227450000000      0.470965230000000
Si      4.658224990000000      6.266254010000000      2.336530670000000
C       6.213597460000000      7.073871240000000      2.936580110000000
Si      3.129054040000000      0.064385760000000      0.032691830000000
C       4.832179760000000      0.840243640000000      0.699786740000000
Si      4.628037450000000      0.869737640000000      2.652671190000000
C       6.118395040000000      1.828457130000000      3.318901910000000
Si      4.644297260000000      2.795546950000000      0.206347930000000
C       6.189703020000000      3.367881750000000      0.647390720000000
Si      5.923722970000000      3.632584540000000      2.692152790000000
C       7.397796090000000      4.515548180000000      3.481496520000000
Si      6.379357770000000      5.062409500000000     -0.042494510000000
C       7.825103540000000      6.195947170000000      0.460182500000000
Si      7.608157220000000      6.271163460000000      2.314370080000000
C       9.213992409999999      7.139816640000000      3.140015450000000
Si      6.278614210000000      0.217517560000000     -0.105838610000000
C       7.764211120000000      0.766867640000000      0.705812610000000
Si      7.942261650000000      1.117691180000000      2.788722020000000
C       9.405910560000001      1.928352320000000      3.044366440000000
Si      7.853183700000000      2.446687160000000      0.213466900000000
C       9.195583290000000      3.561284770000000      0.827881020000000
Si      9.005142770000001      3.739616410000000      2.611005280000000
C      10.707417720000000      4.668013720000000      3.427280400000000
Si      9.289938570000000      5.291563600000000     -0.127981650000000
C      10.943518109999999      6.098461400000000      0.745194870000000
Si     10.983825769999999      6.284266120000000      2.564793050000000
C      12.421691870000000      7.310047950000000      3.209086160000000
36

Si     -0.030322370000000      0.138950330000000      0.068266190000000
C       1.564945130000000      0.989154560000000      0.722073980000000
Si      1.675050110000000      0.709934740000000      2.502673020000000
C       3.192275480000000      1.895901230000000      3.215522740000000
Si      1.467754830000000      2.894168710000000     -0.020920410000000
C       3.000936120000000      3.703444120000000      0.559324160000000
Si      2.806316350000000      3.578590010000000      2.793164130000000
C       4.305517740000000      4.531959750000000      3.046356590000000
Si      3.104427790000000      5.381817810000000     -0.026515830000000
C       4.691523790000000      6.254520190000000      0.420771920000000
Si      4.607145600000000      6.083341630000000      2.189179550000000
C       6.364030570000000      6.979865170000000      2.963945760000000
Si      3.143948610000000     -0.119559360000000      0.254630200000000
C       4.717097110000000      0.978736930000000      0.662896490000000
Si      4.808660360000000      1.015995620000000      2.471680340000000
C       6.272879560000000      1.743568360000000      3.287740320000000
Si      4.606095230000000      2.762947910000000      0.094629050000000
C       5.926790800000000      3.660143210000000      0.690661880000000
Si      6.019592790000000      3.576743710000000      2.684943190000000
C       7.583387010000000      4.395654910000000      3.331718120000000
Si      6.150957090000000      5.270891960000000     -0.252959780000000
C       7.818018430000000      5.863465230000000      0.754649720000000
Si      7.839422190000000      6.027960700000000      2.433549870000000
C       9.340576530000000      7.228799550000000      2.973359650000000
Si      6.243161310000000      0.052447900000000      0.039669580000000
C       7.796876010000000      1.048703370000000      0.793537040000000
Si      8.028304159999999      1.034358590000000      2.499388170000000
C       9.597505300000000      1.665830140000000      3.351583500000000
Si      7.587598190000000      2.630790910000000      0.085078120000000
C       9.017644700000000      3.601763130000000      0.721331110000000
Si      9.239042080000001      3.578015100000000      2.671325590000000
C      10.735463500000000      4.569765680000000      3.305574010000000
Si      9.310004160000000      5.354000110000000     -0.037161980000000
C      10.705577470000000      6.205481570000000      0.659656420000000
Si     11.120828970000000      6.286853460000000      2.470975980000000
C      12.481546390000000      7.302918750000000      3.119934890000000
36

Si      0.037550790000000     -0.067249810000000      0.029112480000000
C       1.577506720000000      0.919594520000000      0.714578250000000
Si      1.711627590000000      0.977610580000000      2.616918140000000
C       3.208597490000000      1.804470060000000      3.268044530000000
Si      1.508482020000000      2.750863340000000      0.036350640000000
C       3.067873210000000      3.609481110000000      0.640687310000000
Si      3.179522490000000      3.521307490000000      2.547977830000000
C       4.708279100000000      4.550465070000000      3.220807530000000
Si      3.083750020000000      5.376903730000000     -0.064552340000000
C       4.578159940000000      6.145481930000000      0.640198260000000
Si      4.556114520000000      6.320863560000000      2.544195330000000
C       6.145349240000000      7.218534160000000      3.147759950000000
Si      3.024391130000000      0.015164540000000     -0.041950840000000
C       4.660310490000000      0.882808040000000      0.685941810000000
Si      4.729729590000000      0.813089580000000      2.614396510000000
C       6.257384330000000      1.769440350000000      3.150332200000000
Si      4.625634990000000      2.640572360000000      0.022580130000000
C       6.143786730000000      3.555409260000000      0.670904100000000
Si      6.235450880000000      3.527358890000000      2.456665680000000
C       7.707654970000000      4.459480220000000      3.143089960000000
Si      6.145712750000000      5.376470580000000     -0.039941400000000
C       7.676589280000000      6.347249870000000      0.616408350000000
Si      7.724973440000000      6.265791890000000      2.496617630000000
C       9.215131230000001      7.099263060000000      3.272411450000000
Si      6.216082450000000     -0.043490000000000     -0.000118250000000
C       7.691414710000000      0.819925470000000      0.598677060000000
Si      7.813800330000000      0.872980580000000      2.526908910000000
C       9.422102300000001      1.883026920000000      3.178349260000000
Si      7.740877880000000      2.661581370000000     -0.003727100000000
C       9.171414170000000      3.618026390000000      0.709527670000000
Si      9.293534850000000      3.602644790000000      2.564315130000000
C      10.947017940000000      4.505319870000000      3.210335520000000
Si      9.190961260000000      5.405755470000000      0.004086580000000
C      10.814954090000001      6.231126560000000      0.693530170000000
Si     10.814103760000000      6.255922830000000      2.581868560000000
C      12.342811350000000      7.163412600000000      3.088950310000000
36

Si     -0.070145350000000      0.014742560000000      0.071593310000000
C       1.425078480000000      0.890139400000000      0.712533160000000
Si      1.660089280000000      0.814641760000000      2.553633880000000
C       3.233575650000000      1.608323010000000      3.264904880000000
Si      1.472855510000000      2.594268420000000     -0.165838370000000
C       2.928719950000000      3.535158460000000      0.628415270000000
Si      3.042680040000000      3.377971510000000      2.523851720000000
C       4.414480500000000      4.369975290000000      3.178044770000000
Si      3.185099020000000      5.340759180000000      0.035854370000000
C       4.748938860000000      6.226606770000000      0.580190350000000
Si      4.601105620000000      6.086280110000000      2.440092680000000
C       6.318764700000000      7.013644260000000      3.357920670000000
Si      3.217771680000000      0.146464670000000      0.097849370000000
C       4.624128690000000      1.034607060000000      0.796664660000000
Si      4.927039790000000      0.863723500000000      2.656842530000000
C       6.488557630000000      2.019279760000000      3.224195900000000
Si      4.530843390000000      2.886447020000000      0.104475850000000
C       6.121168270000000      3.622494390000000      0.590794290000000
Si      6.206388840000000      3.621769040000000      2.399514670000000
C       7.547430090000000      4.334109640000000      3.189600330000000
Si      6.356677430000000      5.351491630000000     -0.030190000000000
C       7.740685040000000      6.289022970000000      0.738867560000000
Si      7.815391020000000      6.281726340000000      2.410070310000000
C       9.420964970000000      7.144472640000000      3.169942490000000
Si      6.111477890000000      0.072531280000000     -0.052957550000000
C       7.714149900000000      1.084830830000000      0.604109730000000
Si      7.708432700000000      0.967907210000000      2.611148680000000
C       9.393841610000001      1.677904390000000      3.104781650000000
Si      7.814429890000000      2.769916570000000      0.051800420000000
C       9.224281740000000      3.746034730000000      0.563165940000000
Si      9.122993440000000      3.552617800000000      2.610251380000000
C      10.619391459999999      4.438170030000000      3.340809110000000
Si      9.149336340000000      5.410469090000000     -0.039188160000000
C      10.987733820000001      6.253577910000000      0.582713900000000
Si     10.852892140000000      6.207135660000000      2.514387870000000
C      12.213613490000000      7.091381630000000      3.253227960000000
36

Si      0.058777860000000      0.107412410000000      0.010001610000000
C       1.711927280000000      0.819036960000000      0.439861960000000
Si      1.546368960000000      0.897488650000000      2.605235540000000
C       3.183285140000000      1.803736890000000      2.972721310000000
Si      1.708671400000000      2.846335630000000     -0.136224560000000
C       3.191733880000000      3.742511940000000      0.536235960000000
Si      3.069283930000000      3.662483200000000      2.585707800000000
C       4.654879360000000      4.516195100000000      3.007062060000000
Si      2.961884260000000      5.430113720000000      0.156839120000000
C       4.496527320000000      6.334094160000000      0.578431970000000
Si      4.743425400000000      6.261670270000000      2.572410100000000
C       6.166873260000000      7.096179570000000      3.349737350000000
Si      3.102593800000000     -0.185071120000000      0.012308900000000
C       4.553312870000000      0.933271010000000      0.474299990000000
Si      4.673256970000000      0.916003380000000      2.530924040000000
C       6.164803410000000      1.665195140000000      3.069232140000000
Si      4.720546490000000      2.632682080000000      0.046103470000000
C       6.097130820000000      3.508037840000000      0.614478710000000
Si      6.238483820000000      3.553036720000000      2.575451160000000
C       7.850934710000000      4.243658370000000      3.214948580000000
Si      5.834633910000000      5.253960350000000      0.067572950000000
C       7.635212530000000      6.051871090000000      0.654245480000000
Si      7.729529460000000      6.233701680000000      2.582218410000000
C       9.213618220000001      7.159807240000000      3.052803970000000
Si      6.078163060000000      0.054230680000000      0.018282950000000
C       7.733545380000000      0.874393750000000      0.625920060000000
Si      7.788628710000000      0.888007130000000      2.529905210000000
C       9.482578910000001      1.770396580000000      3.275060130000000
Si      7.957220250000000      2.701688050000000      0.022521020000000
C       9.503769680000000      3.565951760000000      0.649282160000000
Si      9.370245270000000      3.622842390000000      2.676188360000000
C      10.854387720000000      4.636494940000000      3.182575300000000
Si      9.154045510000000      5.371500610000000      0.054339530000000
C      10.689518820000000      6.376765050000000      0.687963120000000
Si     10.806315659999999      6.222600930000000      2.471454370000000
C      12.363274820000001      7.025334080000000      3.120983320000000
36

Si      0.146593160000000      0.043667220000000      0.248645040000000
C       1.782330440000000      1.119558840000000      0.951656510000000
Si      1.849023010000000      0.886480490000000      2.677645750000000
C       3.302583660000000      1.780629800000000      3.384232500000000
Si      1.548086680000000      2.742839260000000     -0.086589080000000
C       3.112810680000000      3.630606530000000      0.490767250000000
Si      3.112943000000000      3.623659070000000      2.745358060000000
C       4.687178160000000      4.519860550000000      3.134850860000000
Si      2.907540680000000      5.491272420000000      0.131572590000000
C       4.519530660000000      6.005634570000000      0.870312050000000
Si      4.690709750000000      6.311995160000000      2.574602650000000
C       6.214791950000000      7.150100650000000      3.192728510000000
Si      3.232808190000000      0.184442260000000      0.015870980000000
C       4.668517390000000      0.898133520000000      0.638497220000000
Si      4.856499860000000      0.722684090000000      2.539982270000000
C       6.349420260000000      1.823830340000000      3.283823760000000
Si      4.654891240000000      2.854170120000000     -0.211960570000000
C       6.171955380000000      3.547069020000000      0.571640500000000
Si      5.953853050000000      3.562510350000000      2.281313570000000
C       7.684029210000000      4.091564230000000      2.991770780000000
Si      5.961764080000000      5.516224120000000     -0.062180270000000
C       7.752808890000000      6.328704400000000      0.575124350000000
Si      7.710557570000000      5.886093380000000      2.558583570000000
C       9.183683640000000      7.088913600000000      3.319756680000000
Si      6.188572990000000      0.093970260000000     -0.038896600000000
C       7.512495380000000      1.033295100000000      0.695260090000000
Si      7.854531370000000      0.800957830000000      2.525686160000000
C       9.552127660000000      1.735643670000000      3.103249690000000
Si      7.704616160000000      2.613286870000000     -0.132418510000000
C       9.260422139999999      3.501397230000000      0.626244480000000
Si      9.288634180000001      3.389350800000000      2.479215950000000
C      10.913178400000000      4.420433240000000      3.083193850000000
Si      9.126481480000001      5.389923650000000     -0.113364500000000
C      10.702147999999999      6.542676110000000      0.693904040000000
Si     10.597732030000000      6.235070930000000      2.650435230000000
C      12.542631790000000      7.190361420000000      3.296529310000000
36

Si      0.038320330000000      0.047256160000000     -0.055698080000000
C       1.478003550000000      0.875376870000000      0.660158710000000
Si      1.614766440000000      0.872991580000000      2.569593320000000
C       3.180569250000000      1.858820560000000      3.065538280000000
Si      1.572922630000000      2.660310750000000     -0.028962310000000
C       3.066655910000000      3.642622140000000      0.641775190000000
Si      3.117693800000000      3.629237860000000      2.485866670000000
C       4.680817890000000      4.458734660000000      3.101684220000000
Si      3.036341200000000      5.335940380000000     -0.006823640000000
C       4.578780830000000      6.247231080000000      0.530645350000000
Si      4.563625690000000      6.252076450000000      2.482490280000000
C       6.038577900000000      7.128032850000000      3.209321730000000
Si      3.068747440000000     -0.043717510000000      0.045788960000000
C       4.590710880000000      0.929942600000000      0.630983910000000
Si      4.785332480000000      0.954606250000000      2.471335750000000
C       6.203817470000000      1.754004590000000      3.175352860000000
Si      4.631531590000000      2.683713470000000      0.097490500000000
C       6.152681300000000      3.631818310000000      0.706753150000000
Si      6.253572810000000      3.563911200000000      2.591947710000000
C       7.814321640000000      4.448769210000000      3.240485390000000
Si      6.137853520000000      5.294750550000000     -0.027154180000000
C       7.636648810000000      6.251702370000000      0.684412820000000
Si      7.674542080000000      6.212585090000000      2.605988420000000
C       9.296015669999999      7.087184450000000      3.245530240000000
Si      6.216279960000000      0.028143200000000     -0.066664070000000
C       7.757804100000000      0.932334520000000      0.639842500000000
Si      7.746821350000000      0.892606930000000      2.487109990000000
C       9.367097760000000      1.792451900000000      3.169085510000000
Si      7.767297990000000      2.752215400000000      0.000465940000000
C       9.237792190000000      3.481794280000000      0.740846850000000
Si      9.353651740000000      3.528327130000000      2.582510820000000
C      10.874049299999999      4.527843290000000      3.179517170000000
Si      9.300300620000000      5.342155350000000      0.090066690000000
C      10.808487290000000      6.288485440000000      0.697898860000000
Si     10.817787160000000      6.315320170000000      2.619249980000000
C      12.421309050000000      7.132452410000000      3.207006170000000
36

Si      0.003425760000000     -0.098733620000000      0.164463280000000
C       1.638912610000000      0.838690410000000      0.662201640000000
Si      1.477686800000000      0.827326940000000      2.624785550000000
C       3.069650740000000      1.697431720000000      3.262236560000000
Si      1.385193030000000      2.671850250000000     -0.016355170000000
C       2.990355290000000      3.570376050000000      0.579210790000000
Si      3.007465360000000      3.444870320000000      2.623535230000000
C       4.696595770000000      4.540380940000000      3.191977740000000
Si      3.050019690000000      5.275281500000000     -0.190678270000000
C       4.506037620000000      6.206248680000000      0.574181290000000
Si      4.653337810000000      6.205166870000000      2.394222330000000
C       6.246783790000000      6.979727560000000      3.009843780000000
Si      3.278894500000000      0.096895850000000     -0.043831470000000
C       4.885118760000000      1.113620160000000      0.601558220000000
Si      4.765207310000000      0.789553650000000      2.466375750000000
C       6.010019060000000      1.848411550000000      3.070804920000000
Si      4.660980370000000      2.712410080000000     -0.018675420000000
C       6.089679720000000      3.651518320000000      0.619366450000000
Si      6.070946720000000      3.844462730000000      2.587131740000000
C       7.702248920000000      4.584618770000000      3.125381460000000
Si      6.302155250000000      5.323929880000000      0.023730960000000
C       7.829118030000000      6.252551330000000      0.645013920000000
Si      7.919390740000000      6.378778780000000      2.585698970000000
C       9.533862149999999      7.175991680000000      3.185187940000000
Si      6.282631390000000     -0.016121210000000      0.034469570000000
C       7.760000110000000      0.810200830000000      0.638509320000000
Si      7.686543220000000      0.966912520000000      2.682568270000000
C       9.018816610000000      1.957473640000000      3.168369850000000
Si      7.644716830000000      2.657305580000000      0.114667780000000
C       9.142684670000000      3.531489650000000      0.633165700000000
Si      9.241776979999999      3.662824560000000      2.521264100000000
C      10.913995720000001      4.523218660000000      3.257470080000000
Si      9.243567759999999      5.276965420000000      0.059217240000000
C      10.766960930000000      6.243889950000000      0.606490840000000
Si     10.984381730000001      6.225541660000000      2.567859270000000
C      12.474652620000001      7.124299740000000      3.144383890000000
36

Si     -0.146150990000000     -0.066763780000000     -0.143675610000000
C       1.486752190000000      0.912774820000000      0.574937950000000
Si      1.437903260000000      0.928374510000000      2.500703760000000
C       3.054667220000000      1.734208590000000      3.066152070000000
Si      1.523174920000000      2.683138080000000      0.005856160000000
C       3.054351390000000      3.533659490000000      0.620941680000000
Si      3.154289810000000      3.565044660000000      2.485319500000000
C       4.702856210000000      4.478642670000000      3.207451700000000
Si      3.139702400000000      5.327124760000000      0.017545980000000
C       4.706103410000000      6.226097460000000      0.665415550000000
Si      4.656172150000000      6.231726630000000      2.604364020000000
C       6.175488080000000      7.175659360000000      3.140626580000000
Si      2.972038830000000      0.069383760000000     -0.062461490000000
C       4.569637470000000      0.828428590000000      0.645043430000000
Si      4.683624430000000      0.903830650000000      2.568004130000000
C       6.151153170000000      1.845922350000000      3.124770340000000
Si      4.598463640000000      2.655675430000000      0.114311680000000
C       6.274190540000000      3.594908760000000      0.638304430000000
Si      6.235842240000000      3.645404630000000      2.569903500000000
C       7.746537300000000      4.475870230000000      3.142606670000000
Si      6.272196520000000      5.385707700000000      0.135209330000000
C       7.798491400000000      6.273143390000000      0.685559210000000
Si      7.824046820000000      6.268232800000000      2.562381670000000
C       9.349722740000001      7.179891860000000      3.232683900000000
Si      6.102416820000000      0.028376210000000      0.070557520000000
C       7.763138430000000      0.935361510000000      0.617585230000000
Si      7.781595040000000      0.912728770000000      2.507046350000000
C       9.289304290000000      1.747118140000000      3.253812830000000
Si      7.713870390000000      2.691723650000000     -0.018146080000000
C       9.253071250000000      3.530232060000000      0.652328100000000
Si      9.274660910000000      3.622297460000000      2.576118100000000
C      10.891998970000000      4.471302100000000      3.122831410000000
Si      9.295181230000001      5.324624680000000      0.085921960000000
C      10.914473370000000      6.267353380000000      0.679448810000000
Si     10.993802900000000      6.190596840000000      2.484557010000000
C      12.433756960000000      7.154277190000000      3.178278870000000
36

Si     -0.045786020000000      0.042465570000000     -0.105266120000000
C       1.596258500000000      0.897367600000000      0.621683310000000
Si      1.468929480000000      0.775528570000000      2.554606600000000
C       2.959179030000000      1.798615220000000      3.157627940000000
Si      1.555046870000000      2.652627880000000     -0.013903890000000
C       3.078638440000000      3.540861660000000      0.653698190000000
Si      3.113800650000000      3.581004950000000      2.506946700000000
C       4.623011120000000      4.477046990000000      3.240526000000000
Si      3.178847010000000      5.363571590000000     -0.030944100000000
C       4.728242080000000      6.237423980000000      0.636724430000000
Si      4.671245490000000      6.206155830000000      2.534862760000000
C       6.135225110000000      7.118991780000000      3.118816660000000
Si      3.052708750000000     -0.009175510000000      0.000172700000000
C       4.614703680000000      0.844354470000000      0.600311490000000
Si      4.542311510000000      0.959195110000000      2.539155230000000
C       6.117263140000000      1.767719340000000      3.251317180000000
Si      4.640610590000000      2.690042380000000     -0.004114590000000
C       6.203547040000000      3.571422700000000      0.607894200000000
Si      6.157342330000000      3.602925120000000      2.561539070000000
C       7.702128690000000      4.472669770000000      3.185324970000000
Si      6.246806500000000      5.430341080000000      0.058546650000000
C       7.903316220000000      6.349427560000000      0.711087200000000
Si      7.823066430000000      6.292310060000000      2.629590320000000
C       9.381639079999999      7.202700230000000      3.298832390000000
Si      6.159610150000000     -0.016104040000000      0.014708540000000
C       7.736598810000000      0.941138450000000      0.616956740000000
Si      7.728770020000000      0.891754010000000      2.515119810000000
C       9.229899120000001      1.735742070000000      3.193403650000000
Si      7.805366390000000      2.720052920000000     -0.055163240000000
C       9.312396489999999      3.526652380000000      0.690544260000000
Si      9.206010729999999      3.573896080000000      2.619002740000000
C      10.830770859999999      4.510485160000000      3.140846450000000
Si      9.387190009999999      5.394316930000000      0.089391180000000
C      10.869527410000000      6.267207430000000      0.631458130000000
Si     10.894561460000000      6.186175230000000      2.522603220000000
C      12.421233220000000      7.175510630000000      3.187905670000000
36

Si      0.323430940000000      0.005052260000000     -0.095490110000000
C       1.808269150000000      0.908929920000000      0.535408100000000
Si      1.489138630000000      1.123443260000000      2.670099840000000
C       3.165455790000000      1.694413690000000      3.222877990000000
Si      1.370663680000000      2.652873720000000      0.056181220000000
C       2.878542220000000      3.633419780000000      0.697506950000000
Si      2.940809850000000      3.628691900000000      2.596409600000000
C       4.470960510000000      4.500855440000000      3.140660960000000
Si      3.027946600000000      5.205995190000000     -0.006095080000000
C       4.670797960000000      6.291520070000000      0.358065150000000
Si      4.702768540000000      6.292691410000000      2.371761390000000
C       6.056087380000000      7.285223470000000      3.058022560000000
Si      3.297664080000000     -0.259664460000000     -0.000162220000000
C       4.731452760000000      0.822573110000000      0.799250600000000
Si      4.746643570000000      0.871329360000000      2.703144470000000
C       6.311323860000000      1.679085910000000      3.199214830000000
Si      4.524821750000000      2.563291700000000      0.068565890000000
C       5.965849680000000      3.646795660000000      0.697682440000000
Si      6.095183210000000      3.344429700000000      2.704328850000000
C       7.661293190000000      4.325849820000000      3.039338140000000
Si      6.182928450000000      5.273199270000000     -0.082478160000000
C       8.007375720000001      6.135683570000000      0.616874680000000
Si      7.561144060000000      6.323752570000000      2.478835910000000
C       9.271081990000001      7.106591280000000      3.231111950000000
Si      6.480415690000000      0.218552890000000      0.235181360000000
C       8.141612490000000      0.983284890000000      0.781763290000000
Si      7.871464680000000      0.829967690000000      2.533644560000000
C       9.269167550000001      1.974615690000000      3.336974160000000
Si      7.856803900000000      2.886942170000000     -0.014863990000000
C       9.265322930000000      3.714428860000000      0.723086920000000
Si      9.115154440000000      3.709127370000000      2.597509200000000
C      10.768425479999999      4.496060770000000      3.099039320000000
Si      9.367926580000001      5.290802330000000     -0.078722630000000
C      10.838594280000001      6.183216750000000      0.518115390000000
Si     10.572256440000000      6.339918120000000      2.315354780000000
C      12.300564619999999      7.138575180000000      3.217899500000000
36

Si      0.054442200000000     -0.006225940000000      0.053450090000000
C       1.694415190000000      0.940349740000000      0.824438450000000
Si      1.743870400000000      0.861642090000000      2.772559880000000
C       3.225691090000000      1.760387940000000      3.291611610000000
Si      1.474012010000000      2.739690530000000     -0.016689770000000
C       3.092534440000000      3.611886630000000      0.573553280000000
Si      3.057693220000000      3.621429280000000      2.444728730000000
C       4.479772230000000      4.487903010000000      3.159607500000000
Si      3.135059640000000      5.438518600000000      0.110884710000000
C       4.832977930000000      6.241335850000000      0.728150060000000
Si      4.559766970000000      6.404405130000000      2.592770910000000
C       6.156778450000000      7.130854530000000      3.194068110000000
Si      3.204127540000000     -0.090625310000000      0.137831950000000
C       4.738479450000000      1.016526120000000      0.765270880000000
Si      4.753919330000000      0.927634040000000      2.692312120000000
C       6.351393250000000      1.827813890000000      3.338471790000000
Si      4.575074670000000      2.805304230000000     -0.121305960000000
C       6.208184650000000      3.637910220000000      0.599493970000000
Si      6.304175480000000      3.509920910000000      2.450304170000000
C       7.696520890000000      4.440673570000000      3.247190430000000
Si      6.217824520000000      5.317120050000000      0.009111200000000
C       7.788486090000000      6.227940810000000      0.557939460000000
Si      7.749047030000000      6.150640750000000      2.588035740000000
C       9.277887959999999      6.948222290000000      3.337212240000000
Si      6.004091540000000      0.152387320000000     -0.108490030000000
C       7.700424420000000      0.883392720000000      0.552036270000000
Si      7.663590960000000      0.807600110000000      2.474869140000000
C       9.303851630000000      1.815614870000000      3.207379770000000
Si      7.649846960000000      2.754491510000000     -0.134713600000000
C       9.185777529999999      3.632288860000000      0.624484660000000
Si      9.192049259999999      3.581584300000000      2.456861630000000
C      10.663135860000001      4.391336630000000      3.092319480000000
Si      9.329144140000000      5.275156950000000     -0.036523740000000
C      10.966886690000001      6.168318970000000      0.572295900000000
Si     10.812478790000000      6.116988000000000      2.498512020000000
C      12.328764659999999      7.201077920000000      3.048598950000000
36

Si     -0.057150790000000      0.029794420000000     -0.049390570000000
C       1.626959980000000      0.850368020000000      0.580516800000000
Si      1.635034000000000      0.898400980000000      2.490015050000000
C       3.087908680000000      1.879655430000000      3.166043440000000
Si      1.596520310000000      2.623669390000000     -0.064959620000000
C       3.049594120000000      3.527341690000000      0.627493740000000
Si      3.084971400000000      3.561113370000000      2.482998720000000
C       4.644693920000000      4.544618680000000      3.169873000000000
Si      3.065999000000000      5.278269310000000      0.042144150000000
C       4.542518580000000      6.302233070000000      0.679596430000000
Si      4.624877540000000      6.318738720000000      2.563710170000000
C       6.164798400000000      7.235578370000000      3.182033130000000
Si      3.159398320000000     -0.136140060000000     -0.024994730000000
C       4.625349410000000      0.857654470000000      0.602526730000000
Si      4.648352390000000      0.950769110000000      2.552165350000000
C       6.210910370000000      1.864963230000000      3.223063100000000
Si      4.671216140000000      2.696067200000000      0.013955160000000
C       6.083018320000000      3.690456200000000      0.705379380000000
Si      6.210251410000000      3.576081400000000      2.568402390000000
C       7.809941100000000      4.425742130000000      3.192325220000000
Si      6.079260740000000      5.429638690000000      0.059746210000000
C       7.713136880000000      6.190300740000000      0.618464000000000
Si      7.777556640000000      6.227150020000000      2.576482540000000
C       9.229878660000001      7.188344850000000      3.240784470000000
Si      6.266659610000000     -0.050369080000000     -0.023606780000000
C       7.666897950000000      0.978641730000000      0.698316680000000
Si      7.749310170000000      0.958161960000000      2.563751570000000
C       9.428999299999999      1.739552760000000      3.190111540000000
Si      7.693343120000000      2.733402550000000      0.073984680000000
C       9.346887530000000      3.519253850000000      0.683869320000000
Si      9.377971550000000      3.594208430000000      2.530168420000000
C      10.857360330000001      4.536864130000000      3.233117170000000
Si      9.281516590000001      5.221284230000000     -0.024505130000000
C      10.742572340000001      6.199919120000000      0.726407000000000
Si     10.824770010000000      6.285275670000000      2.563953920000000
C      12.370324090000000      7.234878190000000      3.125192640000000
36

Si      0.147076860000000     -0.014137380000000      0.194783660000000
C       1.618323740000000      0.802111190000000      0.724972450000000
Si      1.446489100000000      0.954091580000000      2.624153490000000
C       3.084129540000000      1.759191730000000      3.309815160000000
Si      1.431755640000000      2.478890840000000     -0.060293750000000
C       2.956615220000000      3.589562290000000      0.658596710000000
Si      2.984607540000000      3.479721540000000      2.574210710000000
C       4.611317530000000      4.443082700000000      3.094570850000000
Si      3.042070650000000      5.305523900000000     -0.172624250000000
C       4.469073570000000      6.233405240000000      0.580566210000000
Si      4.679308370000000      6.115488710000000      2.478009740000000
C       6.268650540000000      7.195911220000000      3.162716710000000
Si      3.226833950000000      0.079175310000000      0.086577310000000
C       4.617390150000000      1.030031240000000      0.598130860000000
Si      4.644113310000000      0.926912540000000      2.526673130000000
C       6.154684860000000      1.850539020000000      3.208071930000000
Si      4.609558870000000      2.741184640000000     -0.004960590000000
C       6.017533840000000      3.632025780000000      0.703622460000000
Si      6.062911410000000      3.699061960000000      2.703475050000000
C       7.709751500000000      4.539574240000000      3.068088200000000
Si      6.250136430000000      5.485969290000000      0.170119240000000
C       7.915157160000000      6.249296550000000      0.681108450000000
Si      7.925196350000000      6.390396700000000      2.478417200000000
C       9.428959140000000      7.341014680000000      3.040034590000000
Si      6.304446190000000     -0.031782500000000      0.088218450000000
C       7.747859270000000      0.870622470000000      0.592940070000000
Si      7.766521140000000      0.973369080000000      2.525061080000000
C       9.217916779999999      1.687709510000000      3.223758990000000
Si      7.610048960000000      2.610570630000000      0.008317540000000
C       9.308476320000000      3.407075160000000      0.545798620000000
Si      9.302866399999999      3.488952150000000      2.449356410000000
C      10.781341630000000      4.565009940000000      3.151682390000000
Si      9.396530250000000      5.219565380000000     -0.012935570000000
C      10.667540360000000      6.341647900000000      0.584569110000000
Si     10.929509400000001      6.340129620000000      2.463923620000000
C      12.463059830000001      7.117327600000000      3.186532930000000
36

Si      0.024282690000000      0.028717570000000      0.283834560000000
C       1.503025570000000      0.978770820000000      0.678945610000000
Si      1.684902920000000      0.927269400000000      2.611332660000000
C       3.117722980000000      1.864934470000000      3.372926470000000
Si      1.748619030000000      2.842626690000000      0.127182180000000
C       3.286256920000000      3.550241090000000      0.656809550000000
Si      3.262135140000000      3.520624160000000      2.510625130000000
C       4.707780940000000      4.089766120000000      3.263087940000000
Si      3.146696560000000      5.546144770000000      0.213036520000000
C       4.779554330000000      6.365629370000000      1.126475910000000
Si      4.585400110000000      6.074705040000000      2.860247750000000
C       6.030981600000000      7.097868680000000      3.423736250000000
Si      3.044266270000000      0.164487160000000     -0.095866240000000
C       4.669188380000000      0.924245700000000      0.464122840000000
Si      4.665697950000000      0.888673620000000      2.793450840000000
C       6.478715400000000      1.826057880000000      3.076332480000000
Si      4.659252670000000      2.673754560000000     -0.172720740000000
C       6.108215700000000      3.845826660000000      0.469181750000000
Si      6.107214820000000      3.488795470000000      2.315473120000000
C       7.743247900000000      4.506771970000000      3.039564800000000
Si      6.249187110000000      5.542098720000000      0.133758510000000
C       7.588781770000000      6.383482830000000      0.647586460000000
Si      7.640878650000000      6.324970600000000      2.624406270000000
C       9.207727520000001      7.308605050000000      3.265132340000000
Si      6.155544220000000     -0.142227010000000     -0.164551600000000
C       7.613082910000000      0.771279090000000      0.506657730000000
Si      7.686013810000000      0.735057670000000      2.249298860000000
C       9.340156280000000      1.706357110000000      3.069824360000000
Si      7.742986820000000      2.543707860000000     -0.202024740000000
C       9.238957770000001      3.584771180000000      0.460169340000000
Si      9.192250870000001      3.571277760000000      2.341672820000000
C      10.847466089999999      4.406781880000000      3.059836420000000
Si      9.178454660000000      5.392712450000000     -0.026837390000000
C      10.688349410000001      6.260961260000000      0.619908140000000
Si     10.838658280000001      6.166487850000000      2.647293290000000
C      12.433560430000000      7.073353310000000      3.080996260000000
36

Si      0.147919020000000     -0.066901740000000      0.070546550000000
C       1.447563300000000      1.006542340000000      0.826001070000000
Si      1.557106190000000      0.715146080000000      2.543881810000000
C       3.140529780000000      1.741746450000000      3.248648570000000
Si      1.776633240000000      2.937679100000000     -0.041570210000000
C       3.354479000000000      3.712588220000000      0.495205870000000
Si      3.186842040000000      3.319548720000000      2.699401480000000
C       4.619853160000000      4.355668260000000      3.161002840000000
Si      3.012546130000000      5.601309680000000      0.288409330000000
C       4.652878430000000      6.371255360000000      0.960823510000000
Si      4.566279880000000      6.196863750000000      2.692529180000000
C       6.182147210000000      7.223097940000000      3.391094800000000
Si      2.827992110000000      0.052004430000000     -0.034611530000000
C       4.496712640000000      0.872878630000000      0.518408300000000
Si      4.731998140000000      0.976131850000000      2.457511670000000
C       6.194671720000000      1.753148250000000      3.188978470000000
Si      4.803093820000000      2.766264240000000     -0.128931750000000
C       6.179659360000000      3.762429130000000      0.535628010000000
Si      6.406118020000000      3.429080070000000      2.428099230000000
C       7.855788970000000      4.394829760000000      3.079808450000000
Si      6.196752160000000      5.425874370000000     -0.065878400000000
C       7.734940390000000      6.121665750000000      0.981299880000000
Si      7.696372320000000      6.349416420000000      2.893422240000000
C       9.349164580000000      7.400541010000000      3.099985150000000
Si      5.915617710000000     -0.144273860000000     -0.087039980000000
C       7.766657940000000      0.866487010000000      0.643837800000000
Si      7.664171000000000      0.879523580000000      2.433424600000000
C       9.245236250000000      1.684763120000000      3.129092100000000
Si      7.788597990000000      2.591576640000000     -0.248686080000000
C       9.135436000000000      3.542489780000000      0.464737140000000
Si      9.350255440000000      3.470582700000000      2.258950600000000
C      11.011484180000000      4.218624280000000      2.943947580000000
Si      9.194970560000000      5.383733510000000      0.078513920000000
C      10.650704290000000      6.293631050000000      0.842216950000000
Si     10.814081520000000      6.368488680000000      2.602964960000000
C      12.306629709999999      7.311790900000000      3.258524130000000
36

Si      0.107515240000000      0.075401730000000     -0.062132060000000
C       1.555650790000000      0.998975990000000      0.606906030000000
Si      1.856389840000000      0.812920080000000      2.548652450000000
C       3.280367650000000      1.593649840000000      3.229126180000000
Si      1.444233550000000      2.704519530000000     -0.103816270000000
C       2.791009000000000      3.604642760000000      0.756847150000000
Si      3.028319600000000      3.474592150000000      2.521845230000000
C       4.477821930000000      4.398296200000000      3.073485600000000
Si      2.959142630000000      5.439718970000000     -0.111245420000000
C       4.631201010000000      6.362587080000000      0.409446710000000
Si      4.811899030000000      6.148902840000000      2.385473170000000
C       6.082808950000000      7.154160890000000      3.174792090000000
Si      3.082429830000000      0.170941100000000      0.123066450000000
C       4.584117810000000      0.940265410000000      0.902054800000000
Si      4.855240890000000      0.587689500000000      2.635836740000000
C       6.298216540000000      1.755344980000000      3.298861290000000
Si      4.557789140000000      2.664524980000000      0.223255680000000
C       6.164836380000000      3.623659170000000      0.566626310000000
Si      5.948067050000000      3.545120560000000      2.615963500000000
C       7.712136720000000      4.509010200000000      3.277847370000000
Si      6.254030060000000      5.459941850000000     -0.131289520000000
C       7.514938680000000      6.428220070000000      0.455419240000000
Si      7.796346670000000      6.160594520000000      2.492100320000000
C       9.400055399999999      6.908319940000000      3.091630220000000
Si      6.016700670000000      0.151581660000000     -0.073843980000000
C       7.667208030000000      0.846599240000000      0.594249440000000
Si      7.914870110000000      0.829660380000000      2.735333760000000
C       9.354953340000000      1.872551480000000      3.113121220000000
Si      7.551647510000000      2.776845290000000      0.262031490000000
C       9.285621060000000      3.703532450000000      0.853712390000000
Si      9.257626230000000      3.628477170000000      2.720892190000000
C      10.909819329999999      4.706789490000000      3.457374220000000
Si      9.193862780000000      5.249047620000000     -0.161781080000000
C      10.705940999999999      6.356571960000000      0.387645770000000
Si     11.097100490000001      6.261795140000000      2.357110500000000
C      12.683672990000000      7.127684280000000      3.200878300000000
36

Si     -0.088031210000000      0.029225340000000     -0.010037250000000
C       1.462164850000000      0.924089620000000      0.493982360000000
Si      1.464672090000000      0.764731950000000      2.624253240000000
C       3.077468380000000      1.719281930000000      2.985122110000000
Si      1.622259390000000      2.785743400000000      0.077005100000000
C       3.203381810000000      3.589529220000000      0.628615510000000
Si      2.950454880000000      3.572581100000000      2.604711730000000
C       4.525146610000000      4.600801610000000      3.230000640000000
Si      3.050831540000000      5.405901570000000      0.016692440000000
C       4.517180980000000      6.215196440000000      0.604673210000000
Si      4.763007230000000      6.124517420000000      2.398148780000000
C       6.313082600000000      7.149737460000000      3.218099860000000
Si      2.993071330000000      0.033321360000000     -0.120223260000000
C       4.774374730000000      0.875859650000000      0.580023000000000
Si      4.711621290000000      0.953879450000000      2.341726570000000
C       6.233017470000000      1.869064870000000      3.091522700000000
Si      4.805589250000000      2.648917150000000      0.198836470000000
C       6.123889230000000      3.610538470000000      0.705239070000000
Si      6.234318660000000      3.666221610000000      2.551876250000000
C       7.789428470000000      4.574737060000000      3.237968420000000
Si      6.131083540000000      5.216022350000000     -0.149415510000000
C       7.754184190000000      6.450330220000000      0.606893430000000
Si      7.814417730000000      6.351918480000000      2.503944730000000
C       9.342283880000000      7.100848370000000      3.134958890000000
Si      6.204484940000000     -0.180775120000000     -0.117680920000000
C       7.677490540000000      0.933559080000000      0.664091270000000
Si      7.659080830000000      0.820872130000000      2.468913320000000
C       9.249727860000000      1.725535720000000      3.198321340000000
Si      7.849928600000000      2.743586630000000      0.112285660000000
C       9.449416140000000      3.739452920000000      0.792403200000000
Si      9.238568770000001      3.626082580000000      2.657919450000000
C      10.774330859999999      4.446454050000000      3.315879970000000
Si      9.263731040000000      5.427079770000000      0.117586300000000
C      10.952185040000000      6.218859990000000      0.892359350000000
Si     10.866532360000001      6.128670620000000      2.636561880000000
C      12.343648340000000      7.202583490000000      3.220336280000000
36

Si     -0.114866750000000      0.118114700000000     -0.098301690000000
C       1.433583620000000      0.727146510000000      0.502057650000000
Si      1.503879970000000      0.779914610000000      2.341157450000000
C       3.068412070000000      1.721702600000000      3.158254450000000
Si      1.675153510000000      2.803840210000000      0.193661530000000
C       3.084396160000000      3.631264740000000      0.594135250000000
Si      3.129457250000000      3.560046440000000      2.613473820000000
C       4.602816390000000      4.512926100000000      3.099581650000000
Si      3.209667070000000      5.534620410000000     -0.000457340000000
C       4.642209360000000      6.482022400000000      0.818219990000000
Si      4.576375060000000      6.286254910000000      2.614137760000000
C       6.034860450000000      7.127466110000000      3.293484440000000
Si      3.116439060000000     -0.177640640000000     -0.038136860000000
C       4.513301180000000      0.914204200000000      0.528656810000000
Si      4.706863550000000      0.859332710000000      2.495911440000000
C       6.340825250000000      1.760144380000000      3.194487620000000
Si      4.750111900000000      2.637704630000000      0.009702520000000
C       6.161973350000000      3.548576980000000      0.670032680000000
Si      6.271898690000000      3.529821850000000      2.648659880000000
C       7.858828380000000      4.569892250000000      3.260244550000000
Si      6.024559240000000      5.305623430000000     -0.020039510000000
C       7.674846200000000      6.167760290000000      0.657979380000000
Si      7.599398460000000      6.025192530000000      2.371487130000000
C       9.034678820000000      7.035839730000000      3.163748030000000
Si      6.206422290000000      0.103884320000000     -0.022000540000000
C       7.837608670000000      0.976529210000000      0.621558210000000
Si      7.908718940000000      0.843932520000000      2.434211760000000
C       9.318633600000000      1.812317190000000      3.177509980000000
Si      7.866559140000000      2.818858930000000      0.154151990000000
C       9.401960450000001      3.724621560000000      0.742878400000000
Si      9.300187859999999      3.636716720000000      2.669164540000000
C      10.976566410000000      4.355454770000000      3.292582770000000
Si      9.374101080000001      5.403162190000000      0.002042210000000
C      10.864751849999999      6.292741480000000      0.620620990000000
Si     10.578774500000000      6.209683680000000      2.541366680000000
C      12.365895530000000      7.210394990000000      3.211267380000000
36

Si      0.060211720000000      0.000109280000000      0.088833310000000
C       1.540354680000000      0.817638580000000      0.806502550000000
Si      1.629593920000000      0.928650350000000      2.701443610000000
C       3.197759070000000      1.831517460000000      3.191008640000000
Si      1.509224490000000      2.626482480000000      0.073094150000000
C       3.071384410000000      3.634553560000000      0.637863950000000
Si      3.148231230000000      3.602573160000000      2.592026420000000
C       4.691412560000000      4.466997680000000      3.249105930000000
Si      3.109098990000000      5.393799810000000     -0.011181280000000
C       4.682728240000000      6.203367430000000      0.570307690000000
Si      4.697373470000000      6.234816820000000      2.570423260000000
C       6.248026150000000      7.179126080000000      3.178292090000000
Si      3.010453100000000     -0.007700550000000      0.009369230000000
C       4.581272360000000      0.836907240000000      0.661151870000000
Si      4.688093180000000      0.908011830000000      2.554060030000000
C       6.242171440000000      1.814287900000000      3.156254640000000
Si      4.567512490000000      2.659874210000000     -0.025335920000000
C       6.176697630000000      3.595170600000000      0.590265170000000
Si      6.182162040000000      3.656549280000000      2.419423810000000
C       7.782058670000000      4.446309510000000      3.095537710000000
Si      6.111136180000000      5.389572380000000     -0.000599220000000
C       7.734170840000000      6.351260790000000      0.568676140000000
Si      7.739184910000000      6.285983400000000      2.493387940000000
C       9.324163900000000      7.160348250000000      3.121245040000000
Si      6.131017770000000     -0.032011570000000      0.043354310000000
C       7.691390130000000      0.851842220000000      0.558520090000000
Si      7.776217630000000      0.890284840000000      2.535605080000000
C       9.364753650000001      1.847453500000000      3.263295550000000
Si      7.721785850000000      2.674659440000000     -0.041901370000000
C       9.261462320000000      3.474058450000000      0.710837440000000
Si      9.285649879999999      3.523306890000000      2.520092640000000
C      10.929195730000000      4.501784210000000      3.091239650000000
Si      9.299937640000000      5.329935300000000      0.060495400000000
C      10.747179310000000      6.269704790000000      0.649279010000000
Si     10.807616319999999      6.291600220000000      2.491723740000000
C      12.439142140000000      7.107613510000000      3.124147280000000
36

Si      0.040548530000000     -0.058666310000000      0.028745090000000
C       1.615117500000000      1.005872230000000      0.655437870000000
Si      1.609972120000000      0.946201700000000      2.529049980000000
C       3.194299940000000      1.697706610000000      3.184702160000000
Si      1.526987440000000      2.749420600000000      0.062099010000000
C       3.092490830000000      3.555302070000000      0.632555380000000
Si      3.171337310000000      3.549100070000000      2.484266950000000
C       4.648381050000000      4.433897630000000      3.222450660000000
Si      3.062977430000000      5.432844080000000      0.017123320000000
C       4.635500820000000      6.299407870000000      0.715372270000000
Si      4.605243340000000      6.228846310000000      2.572680930000000
C       6.209648000000000      7.249137210000000      3.213376320000000
Si      3.140576270000000      0.025405290000000     -0.027750580000000
C       4.719918140000000      0.861038300000000      0.700226870000000
Si      4.611408850000000      0.818874080000000      2.573615350000000
C       6.256583660000000      1.768754960000000      3.162048390000000
Si      4.684990150000000      2.653332370000000     -0.020845370000000
C       6.269146140000000      3.534792920000000      0.644384810000000
Si      6.189820170000000      3.574581870000000      2.567854270000000
C       7.696595150000000      4.498552140000000      3.157490340000000
Si      6.180521060000000      5.389909070000000     -0.003120370000000
C       7.652592110000000      6.253044800000000      0.558173010000000
Si      7.571743260000000      6.264708900000000      2.501612030000000
C       9.145382250000001      7.107617680000000      3.161121540000000
Si      6.261273050000000     -0.026332070000000      0.089985530000000
C       7.794375500000000      0.855555690000000      0.614889460000000
Si      7.855711030000000      0.882470380000000      2.531987000000000
C       9.376783350000000      1.790553690000000      3.244180240000000
Si      7.786034810000000      2.682919810000000     -0.058408460000000
C       9.353657050000001      3.689627720000000      0.593024890000000
Si      9.264801090000001      3.603601850000000      2.626659560000000
C      10.823486180000000      4.429465190000000      3.203374450000000
Si      9.215883440000001      5.391090080000000      0.002305390000000
C      10.819899440000000      6.274144980000000      0.655639860000000
Si     10.748482750000001      6.210533470000000      2.474870300000000
C      12.275638310000000      7.173521740000000      3.189386440000000
36

Si     -0.038362000000000      0.003995000000000     -0.076544920000000
C       1.558409260000000      0.993877990000000      0.573853980000000
Si      1.542508530000000      0.900793030000000      2.449816540000000
C       3.098855230000000      1.762956340000000      3.114065310000000
Si      1.507152900000000      2.694606470000000     -0.050772120000000
C       2.995490670000000      3.528648880000000      0.624019010000000
Si      3.138354480000000      3.625970790000000      2.499664410000000
C       4.662947110000000      4.519611440000000      3.166072970000000
Si      3.077598770000000      5.247924580000000     -0.082003990000000
C       4.660975860000000      6.206649820000000      0.644935780000000
Si      4.600393480000000      6.262229650000000      2.518722170000000
C       6.050106230000000      7.203526140000000      3.076616810000000
Si      3.080417210000000      0.080443000000000     -0.027651620000000
C       4.637520340000000      0.828134240000000      0.606016440000000
Si      4.703304160000000      0.848431760000000      2.549667670000000
C       6.169054020000000      1.784669110000000      3.202421540000000
Si      4.617946340000000      2.687897010000000      0.122446710000000
C       6.219701420000000      3.543116990000000      0.614100430000000
Si      6.249294630000000      3.548721030000000      2.580704090000000
C       7.701954470000000      4.482850570000000      3.238880980000000
Si      6.217743510000000      5.327424120000000      0.111070120000000
C       7.754581810000000      6.313270730000000      0.717940810000000
Si      7.731011880000000      6.256249930000000      2.628253540000000
C       9.263579289999999      7.135602400000000      3.285047630000000
Si      6.113408970000000     -0.032055260000000     -0.046650010000000
C       7.774617420000000      0.932525150000000      0.632245890000000
Si      7.806700710000000      0.917861450000000      2.502998110000000
C       9.303766810000001      1.743974490000000      3.130213230000000
Si      7.789664800000000      2.635571700000000      0.084793850000000
C       9.299451890000000      3.580411680000000      0.656902800000000
Si      9.315112740000000      3.666300940000000      2.567140620000000
C      10.818220719999999      4.494348230000000      3.230635380000000
Si      9.328800599999999      5.413235340000000      0.067242820000000
C      10.864425519999999      6.241781480000000      0.684883020000000
Si     10.907006630000000      6.207622220000000      2.588646860000000
C      12.372300409999999      7.241942540000000      3.227574660000000
36

Si      0.004827560000000      0.062814880000000      0.002561130000000
C       1.565082670000000      0.842637110000000      0.552011370000000
Si      1.675017530000000      0.871644380000000      2.465317600000000
C       3.158443240000000      1.778066100000000      3.184657540000000
Si      1.534857420000000      2.636145790000000      0.001938220000000
C       3.126246710000000      3.557193560000000      0.602874030000000
Si      3.174032890000000      3.582744670000000      2.548801520000000
C       4.647198010000000      4.423263500000000      3.139701320000000
Si      3.053564790000000      5.383928620000000      0.014607200000000
C       4.530111690000000      6.320738190000000      0.720230580000000
Si      4.612230220000000      6.297580710000000      2.568818670000000
C       6.237272920000000      7.143697130000000      3.191775940000000
Si      3.178917610000000     -0.161404920000000     -0.002038890000000
C       4.698858340000000      0.808796660000000      0.747933400000000
Si      4.673471410000000      0.935178600000000      2.621018900000000
C       6.259325290000000      1.796975520000000      3.142233830000000
Si      4.591047860000000      2.688765500000000     -0.003449070000000
C       6.210333180000000      3.489754520000000      0.580000290000000
Si      6.156274820000000      3.650628320000000      2.548279960000000
C       7.708798650000000      4.578530440000000      3.131611790000000
Si      5.957202410000000      5.401127810000000      0.077563280000000
C       7.677018430000000      6.088645310000000      0.644148030000000
Si      7.742966370000000      6.361365700000000      2.521493450000000
C       9.269191400000000      7.241004440000000      3.172021780000000
Si      6.228397280000000     -0.008255760000000      0.055470810000000
C       7.846584160000000      0.910420710000000      0.646889020000000
Si      7.784731070000000      0.925322530000000      2.560181720000000
C       9.367797110000000      1.742860350000000      3.177880920000000
Si      7.749844940000000      2.739187300000000      0.013852450000000
C       9.341409440000000      3.564697880000000      0.638773690000000
Si      9.405576070000000      3.595230110000000      2.611849470000000
C      10.909542900000000      4.476634990000000      3.209548930000000
Si      9.232850890000000      5.340678740000000     -0.035358510000000
C      10.799178400000001      6.126530550000000      0.612907460000000
Si     10.740897900000000      6.228483710000000      2.504514540000000
C      12.301000840000000      7.091063410000000      3.125741310000000
36

Si      0.054035870000000      0.018583140000000      0.098328470000000
C       1.700810770000000      0.799589100000000      0.754187290000000
Si      1.500221750000000      0.844482800000000      2.628433120000000
C       2.930032990000000      1.751038870000000      3.355963530000000
Si      1.398473800000000      2.688679710000000     -0.103566240000000
C       2.995534560000000      3.554594300000000      0.540225910000000
Si      2.864017840000000      3.518567780000000      2.567613290000000
C       4.559859630000000      4.336487330000000      3.143174110000000
Si      3.193237630000000      5.380962810000000      0.004563640000000
C       4.565626670000000      6.365175370000000      0.872244190000000
Si      4.764843050000000      6.255586640000000      2.601937750000000
C       6.390150000000000      7.043759560000000      3.131857660000000
Si      3.263133670000000      0.078168500000000      0.210544360000000
C       4.806411500000000      1.088041610000000      0.697381350000000
Si      4.711675140000000      0.967816020000000      2.635047340000000
C       6.280973520000000      1.739506840000000      3.454155880000000
Si      4.559584440000000      2.766950600000000     -0.050894120000000
C       6.148282820000000      3.593312880000000      0.697694250000000
Si      6.233125350000000      3.729869260000000      2.526782130000000
C       7.637307070000000      4.605029950000000      3.242525380000000
Si      6.259481340000000      5.346122560000000     -0.060371410000000
C       7.763519640000000      6.256974260000000      0.449899830000000
Si      7.775593920000000      6.216741370000000      2.331286260000000
C       9.375951479999999      7.124062590000000      3.098316510000000
Si      6.161982160000000     -0.018381300000000     -0.094372040000000
C       7.671468390000000      0.796261440000000      0.741061060000000
Si      7.709229350000000      0.911084760000000      2.590620360000000
C       9.108454960000000      1.660899070000000      3.075583640000000
Si      7.590904830000000      2.513379900000000      0.009885850000000
C       9.224610930000001      3.661637520000000      0.579082860000000
Si      9.268673890000001      3.561808380000000      2.491585520000000
C      10.716708020000000      4.450564830000000      3.303337950000000
Si      9.366186810000000      5.390109860000000     -0.030437010000000
C      10.909294040000001      6.186329020000000      0.622147660000000
Si     10.945440460000000      6.304881300000000      2.412958540000000
C      12.580474380000000      7.098612930000000      3.176402680000000
36

Si      0.245840730000000      0.139468700000000      0.196020360000000
C       1.845672330000000      0.831577220000000      0.799113300000000
Si      1.656656950000000      0.834448230000000      2.660311690000000
C       3.220300320000000      1.701239140000000      3.410790260000000
Si      1.601649250000000      2.586181510000000      0.195184440000000
C       3.188229840000000      3.563602260000000      0.644226430000000
Si      2.913916420000000      3.491870710000000      2.421622250000000
C       4.437624070000000      4.380979490000000      3.269913020000000
Si      3.245414520000000      5.545438820000000      0.054238230000000
C       4.962577600000000      6.220643510000000      0.717801280000000
Si      4.520079070000000      6.233367800000000      2.473476170000000
C       6.180339150000000      6.996674350000000      3.237742850000000
Si      3.215739070000000     -0.198735240000000      0.065852110000000
C       4.722086740000000      1.051063640000000      0.531464540000000
Si      4.768250870000000      0.997266810000000      2.832234530000000
C       6.249486630000000      1.839486370000000      3.286515470000000
Si      4.502063230000000      2.611130730000000     -0.195651940000000
C       6.087299160000000      3.548548590000000      0.674634620000000
Si      5.987261030000000      3.761929630000000      2.621674100000000
C       7.561292750000000      4.474632230000000      3.127514630000000
Si      6.244939210000000      5.183183730000000      0.083272830000000
C       7.757259940000000      6.033941330000000      0.637623970000000
Si      7.782348140000000      6.267878320000000      2.435571290000000
C       9.318720910000000      7.191587920000000      3.183113000000000
Si      6.187883190000000      0.041314730000000     -0.045958760000000
C       7.806460760000000      0.917019730000000      0.589787200000000
Si      7.699558790000000      0.991496700000000      2.356092370000000
C       9.322981029999999      1.936947910000000      3.045218110000000
Si      7.680165920000000      2.668732630000000      0.125841920000000
C       9.285843320000000      3.352599500000000      0.638868600000000
Si      9.170991389999999      3.701258380000000      2.604135620000000
C      10.655494610000000      4.701635500000000      3.151812220000000
Si      9.340411550000001      5.185518370000000     -0.139932340000000
C      10.815063909999999      6.139078640000000      0.364773010000000
Si     10.668618220000001      6.421318640000000      2.325292380000000
C      12.388467199999999      7.259486380000000      2.924398130000000
36

Si      0.101442750000000     -0.006792610000000      0.037062880000000
C       1.495259250000000      0.964716560000000      0.774534560000000
Si      1.514421600000000      0.969577860000000      2.539089390000000
C       3.062458060000000      1.838013910000000      3.216788540000000
Si      1.631283970000000      2.782902660000000      0.108843300000000
C       3.225596340000000      3.527715240000000      0.594849980000000
Si      3.214792330000000      3.732847390000000      2.507507890000000
C       4.618258540000000      4.601481410000000      3.435195680000000
Si      2.964827970000000      5.394671610000000     -0.010389900000000
C       4.578787550000000      6.312290280000000      0.672256230000000
Si      4.772743460000000      6.266690280000000      2.586608860000000
C       6.179974430000000      7.272023220000000      3.365738570000000
Si      3.246455920000000     -0.123947580000000      0.088362160000000
C       4.687250210000000      0.791986210000000      0.688205710000000
Si      4.499147900000000      0.960243160000000      2.553631430000000
C       6.341006370000000      1.734035940000000      3.070639850000000
Si      4.761292430000000      2.641820300000000     -0.058657960000000
C       6.108436670000000      3.539637230000000      0.657207840000000
Si      6.259901570000000      3.526673600000000      2.644330180000000
C       7.732924860000000      4.328006050000000      3.103280630000000
Si      6.126840540000000      5.366967980000000      0.105274260000000
C       7.658017140000000      6.188798740000000      0.792428820000000
Si      7.714922020000000      6.214410320000000      2.554087900000000
C       9.235701960000000      7.247486030000000      3.265996210000000
Si      6.222983110000000     -0.030374120000000      0.052386290000000
C       7.835720330000000      0.868578430000000      0.483806680000000
Si      7.823662020000000      0.843472130000000      2.478329130000000
C       9.240943180000000      1.831469380000000      3.233533320000000
Si      7.590194030000000      2.561356980000000     -0.185126260000000
C       9.108670330000001      3.596366470000000      0.495094220000000
Si      9.381722520000000      3.621148520000000      2.380060420000000
C      10.706942540000000      4.542861820000000      3.109314040000000
Si      9.234497319999999      5.299303800000000     -0.048557220000000
C      10.861530880000000      6.254605320000000      0.643594890000000
Si     10.748040189999999      6.280242600000000      2.498403540000000
C      12.245278770000001      7.079137880000000      3.189436170000000
36

Si      0.039057060000000      0.140144590000000      0.026437760000000
C       1.627203750000000      0.885070810000000      0.601224130000000
Si      1.631037090000000      0.878744130000000      2.594451630000000
C       3.177023830000000      1.825650180000000      3.240681800000000
Si      1.569028970000000      2.683318520000000      0.000654090000000
C       3.093116380000000      3.596520960000000      0.667361790000000
Si      3.065872820000000      3.554294480000000      2.471045520000000
C       4.639866710000000      4.383651790000000      3.172935170000000
Si      3.130108940000000      5.358627090000000      0.050081080000000
C       4.549742070000000      6.356256410000000      0.688164930000000
Si      4.693418750000000      6.189399190000000      2.592788960000000
C       6.191937420000000      7.087671330000000      3.239923970000000
Si      3.153475300000000     -0.090243370000000     -0.020332110000000
C       4.708882090000000      0.865897770000000      0.622799480000000
Si      4.601685400000000      0.942344370000000      2.530223690000000
C       6.128198280000000      1.788552300000000      3.119407270000000
Si      4.683029960000000      2.640874490000000      0.017468120000000
C       6.160366670000000      3.619944140000000      0.691461360000000
Si      6.213721500000000      3.688700450000000      2.582583140000000
C       7.742808370000000      4.474722630000000      3.207396620000000
Si      6.076794050000000      5.416394650000000     -0.008805620000000
C       7.760178040000000      6.201299560000000      0.660619880000000
Si      7.652328080000000      6.245563390000000      2.510922470000000
C       9.174462520000001      7.167276550000000      3.163864910000000
Si      6.282793250000000     -0.038243500000000      0.063762160000000
C       7.741926660000000      0.945028170000000      0.706591430000000
Si      7.744151730000000      0.866588310000000      2.590673350000000
C       9.373476350000001      1.810903740000000      3.137230290000000
Si      7.763768310000000      2.794772610000000     -0.062413560000000
C       9.340088079999999      3.551761820000000      0.638736340000000
Si      9.295030390000001      3.488761050000000      2.589532000000000
C      10.790255690000000      4.446621370000000      3.151167180000000
Si      9.309912949999999      5.319659770000000     -0.051194310000000
C      10.802202440000000      6.266050110000000      0.552905210000000
Si     10.709962210000000      6.286369480000000      2.490132850000000
C      12.374643210000000      7.094679510000000      3.209630780000000
36

Si     -0.103551990000000     -0.026917750000000      0.059642840000000
C       1.506686120000000      0.872550670000000      0.695477230000000
Si      1.587798120000000      0.812162480000000      2.534028770000000
C       3.057952080000000      1.739933590000000      3.145954730000000
Si      1.499687810000000      2.660936390000000      0.090355890000000
C       3.091100500000000      3.605292380000000      0.685834930000000
Si      3.182580540000000      3.612075910000000      2.551360550000000
C       4.651916690000000      4.435670790000000      3.196743570000000
Si      3.158056040000000      5.405884780000000     -0.012370290000000
C       4.651607450000000      6.230938300000000      0.728168200000000
Si      4.708118780000000      6.291282880000000      2.535128230000000
C       6.298826870000000      7.118239150000000      3.173279020000000
Si      3.113591730000000     -0.016590480000000     -0.025759610000000
C       4.627809490000000      0.955044320000000      0.709567130000000
Si      4.562448240000000      0.956659810000000      2.652733710000000
C       6.118584610000000      1.827456690000000      3.195216590000000
Si      4.616469250000000      2.733196330000000     -0.050112440000000
C       6.163686280000000      3.609521730000000      0.603329530000000
Si      6.121458710000000      3.539562210000000      2.467738050000000
C       7.696305910000000      4.424405780000000      3.079490520000000
Si      6.251893200000000      5.472157670000000      0.031173420000000
C       7.800451660000000      6.218263440000000      0.638053990000000
Si      7.851227020000000      6.243250830000000      2.525444530000000
C       9.399925570000001      7.179925370000000      3.249120240000000
Si      6.133632680000000     -0.052394390000000      0.045409740000000
C       7.626521990000000      0.895025620000000      0.554084920000000
Si      7.720265750000000      0.926903100000000      2.544152360000000
C       9.319356890000000      1.724254500000000      3.189542550000000
Si      7.709044310000000      2.723210560000000     -0.038928350000000
C       9.320284400000000      3.561569090000000      0.602197020000000
Si      9.293695590000000      3.547887680000000      2.544165930000000
C      10.789510840000000      4.479333290000000      3.222565610000000
Si      9.317974010000000      5.289103730000000     -0.020640150000000
C      10.869888740000000      6.228339090000000      0.606423620000000
Si     10.884602270000000      6.270094370000000      2.551333920000000
C      12.400424240000000      7.209425440000000      3.157662110000000
36

Si     -0.090970750000000     -0.083847660000000     -0.118978040000000
C       1.580883210000000      0.707719290000000      0.457202050000000
Si      1.475407200000000      0.907627500000000      2.396589060000000
C       3.105976080000000      1.896535890000000      2.921535560000000
Si      1.614810700000000      2.711908330000000      0.073543700000000
C       3.090946410000000      3.685893230000000      0.584697350000000
Si      3.234870740000000      3.668768600000000      2.714476330000000
C       4.832948810000000      4.599240580000000      3.295842120000000
Si      2.931070930000000      5.337641470000000      0.017037120000000
C       4.708070130000000      6.135333060000000      0.612142030000000
Si      4.690038730000000      6.270814920000000      2.579984470000000
C       6.149403230000000      7.147532480000000      3.226300750000000
Si      3.148515590000000      0.078301890000000     -0.066763690000000
C       4.600999380000000      1.056093380000000      0.445400800000000
Si      4.503516470000000      0.834547610000000      2.467749730000000
C       6.015972910000000      1.639085510000000      2.941902310000000
Si      4.661101180000000      2.788139010000000      0.020977770000000
C       6.017804050000000      3.687654950000000      0.759238330000000
Si      6.281132580000000      3.493064380000000      2.707123870000000
C       7.857888600000000      4.292211060000000      3.097979690000000
Si      6.157675840000000      5.317429470000000      0.014277090000000
C       7.732973730000000      6.155897910000000      0.623417250000000
Si      7.759568290000000      6.274436510000000      2.459657570000000
C       9.203871250000001      7.152647840000000      3.152279740000000
Si      6.185184810000000     -0.032162350000000      0.053148600000000
C       7.764595990000000      0.985543850000000      0.615183090000000
Si      7.787192140000000      0.839375980000000      2.486895000000000
C       9.443254820000000      1.764302410000000      3.265458770000000
Si      7.586994430000000      2.770490640000000      0.134934610000000
C       9.340607250000000      3.544533630000000      0.816574770000000
Si      9.445980770000000      3.614661770000000      2.628950620000000
C      10.893098110000000      4.621838020000000      3.210228150000000
Si      9.300092340000001      5.177582740000000      0.049109900000000
C      10.900349869999999      6.246071080000000      0.768696680000000
Si     10.853842360000000      6.364387010000000      2.545833660000000
C      12.345201130000000      7.126359900000000      3.218459650000000
36

Si      0.236944090000000     -0.270044850000000      0.181022910000000
C       1.944168680000000      0.992140300000000      0.784242590000000
Si      1.626472400000000      1.217117470000000      2.547243340000000
C       3.263756360000000      2.072622400000000      3.306385160000000
Si      1.435945150000000      2.649971110000000      0.086817060000000
C       2.959763090000000      3.481647570000000      0.507077080000000
Si      3.086685440000000      3.656808190000000      2.552764020000000
C       4.466482090000000      4.621361510000000      3.315962360000000
Si      3.069879830000000      5.172441700000000     -0.156182610000000
C       4.724516990000000      5.879393170000000      0.829849840000000
Si      4.669077210000000      6.300984860000000      2.711507890000000
C       6.182217920000000      7.454777430000000      3.073532350000000
Si      3.249430130000000     -0.101531010000000      0.100803690000000
C       4.930779240000000      0.927921730000000      0.699230490000000
Si      4.714729870000000      0.957603180000000      2.716851380000000
C       6.381766970000000      1.821927570000000      3.298162110000000
Si      4.480954030000000      2.670039110000000      0.093671070000000
C       5.980179450000000      3.320073650000000      0.597576610000000
Si      6.005895920000000      3.519213750000000      2.549143560000000
C       7.496748340000000      4.404182370000000      3.251696280000000
Si      6.254640160000000      5.115331840000000     -0.190472450000000
C       7.553965260000000      6.206406910000000      0.456390410000000
Si      7.580839070000000      6.251348210000000      2.449457910000000
C       9.179368110000000      7.248144850000000      3.120160350000000
Si      6.317809740000000      0.027904210000000     -0.046985490000000
C       7.885679200000000      0.945444910000000      0.503233930000000
Si      7.801563350000000      0.998799260000000      2.484983490000000
C       9.337027460000000      1.837730830000000      3.126034370000000
Si      7.831203890000000      2.702996340000000      0.105394100000000
C       9.284290759999999      3.565640270000000      0.781276430000000
Si      8.993456900000000      3.591922460000000      2.510076590000000
C      10.717401940000000      4.548107800000000      3.207466150000000
Si      9.252830640000001      5.504676820000000     -0.069543440000000
C      11.159410510000001      6.235219040000000      0.498159270000000
Si     10.792435970000000      6.211987280000000      2.333585230000000
C      12.430151120000000      7.245588650000000      3.134076200000000
36

Si     -0.018218540000000     -0.035743150000000     -0.170553270000000
C       1.433320000000000      0.941407320000000      0.613420360000000
Si      1.514157210000000      0.838457220000000      2.516083930000000
C       3.181472600000000      1.877995550000000      3.040289750000000
Si      1.264794000000000      2.888908460000000      0.085914660000000
C       2.768870580000000      3.639193050000000      0.477129740000000
Si      3.032210280000000      3.705560500000000      2.637089040000000
C       4.557118910000000      4.440011600000000      3.342198140000000
Si      3.081321360000000      5.442275190000000     -0.314021400000000
C       4.528892460000000      6.355609320000000      0.470209180000000
Si      4.553318200000000      5.967160350000000      2.389176320000000
C       6.375703080000000      7.231802820000000      2.812679600000000
Si      3.001678610000000     -0.081896780000000     -0.089070740000000
C       4.812868220000000      0.841958970000000      0.700167920000000
Si      4.788320350000000      0.897470880000000      2.811403960000000
C       6.327785980000000      1.798201430000000      3.130157320000000
Si      4.450421930000000      2.595623890000000      0.134699820000000
C       5.865555250000000      3.522816400000000      0.751898040000000
Si      6.317431040000000      3.697341490000000      2.712144910000000
C       7.892056740000000      4.407027410000000      3.419986900000000
Si      6.115162660000000      5.319129130000000     -0.131530190000000
C       7.878109790000000      6.167839740000000      0.426102500000000
Si      7.836756880000000      6.118884560000000      2.405903770000000
C       9.379988150000001      7.075651390000000      3.181115150000000
Si      6.457535180000000      0.176028250000000      0.111115840000000
C       7.847334900000000      1.045886550000000      0.870347770000000
Si      7.911277840000000      0.857933410000000      2.635307310000000
C       9.481606129999999      1.659160900000000      3.297033700000000
Si      7.547613410000000      2.751745090000000      0.147252230000000
C       9.139321060000000      3.575783030000000      0.758121060000000
Si      9.261311149999999      3.658904220000000      2.691879650000000
C      10.674479410000000      4.492199970000000      3.333205130000000
Si      9.472149849999999      5.361792960000000      0.046045530000000
C      11.014096120000000      6.263322890000000      0.504609800000000
Si     10.940882759999999      6.168161790000000      2.445114470000000
C      12.421355589999999      7.121323620000000      3.119081690000000
36

Si     -0.091030670000000     -0.066136150000000     -0.044441350000000
C       1.373188940000000      0.910698650000000      0.546520370000000
Si      1.473608370000000      0.914792780000000      2.416407230000000
C       3.085449730000000      1.710160000000000      3.051360310000000
Si      1.538457980000000      2.716457280000000     -0.062635360000000
C       2.997054650000000      3.592831320000000      0.647062290000000
Si      3.091390510000000      3.578513310000000      2.568333220000000
C       4.662218450000000      4.399954640000000      3.110785070000000
Si      3.034724700000000      5.378762420000000      0.032977930000000
C       4.614427450000000      6.303521960000000      0.656812470000000
Si      4.747001110000000      6.194550380000000      2.507736660000000
C       6.308269470000000      7.184638290000000      3.230107730000000
Si      3.098661000000000     -0.027123270000000      0.002425870000000
C       4.637168880000000      0.798952620000000      0.666596260000000
Si      4.665220420000000      0.925039000000000      2.503945530000000
C       6.201202360000000      1.821878070000000      3.168618100000000
Si      4.692846560000000      2.671048760000000      0.000786950000000
C       6.173414830000000      3.580089050000000      0.781430240000000
Si      6.204654260000000      3.575961220000000      2.572381670000000
C       7.737111390000000      4.418010200000000      3.162806440000000
Si      6.251589380000000      5.373883390000000      0.156663670000000
C       7.721715640000000      6.290722260000000      0.659681260000000
Si      7.862362070000000      6.280848310000000      2.567479500000000
C       9.418867250000000      7.174396240000000      3.169720270000000
Si      6.249507690000000      0.024084420000000     -0.040140450000000
C       7.632708960000000      0.886015670000000      0.681285580000000
Si      7.667638730000000      0.912045010000000      2.579307690000000
C       9.267928299999999      1.900701910000000      3.211989750000000
Si      7.671493480000000      2.674337810000000      0.109186760000000
C       9.298799010000000      3.605089280000000      0.601507510000000
Si      9.344750449999999      3.608058810000000      2.526187680000000
C      10.827961699999999      4.423214090000000      3.286924500000000
Si      9.292999900000000      5.321208930000000      0.018019740000000
C      10.736453550000000      6.305146110000000      0.707596790000000
Si     10.920240209999999      6.270959860000000      2.516666860000000
C      12.446409940000001      7.152212620000000      3.217163790000000
36

Si     -0.075277760000000      0.001622480000000     -0.092233860000000
C       1.436497420000000      0.831997270000000      0.532921430000000
Si      1.557184170000000      0.912815620000000      2.436122360000000
C       3.082507510000000      1.833503170000000      3.037995830000000
Si      1.505770770000000      2.691155130000000     -0.046613620000000
C       3.021110700000000      3.631052000000000      0.588514990000000
Si      3.133795600000000      3.585284410000000      2.486689260000000
C       4.677309740000000      4.440934930000000      3.151293550000000
Si      3.136116140000000      5.322743300000000     -0.042134000000000
C       4.593237070000000      6.271960750000000      0.570431200000000
Si      4.631265020000000      6.245998950000000      2.602317960000000
C       6.144669610000000      7.143851320000000      3.159274770000000
Si      3.182114990000000     -0.065440510000000     -0.086635230000000
C       4.607212940000000      0.867593470000000      0.674233000000000
Si      4.667673470000000      0.918287300000000      2.598481440000000
C       6.250643520000000      1.746836200000000      3.130581770000000
Si      4.672235870000000      2.732876100000000      0.092080940000000
C       6.202595690000000      3.597388720000000      0.775037710000000
Si      6.229580630000000      3.548666790000000      2.589530780000000
C       7.723763770000000      4.388854160000000      3.243704540000000
Si      6.131438100000000      5.346875720000000      0.111867430000000
C       7.717442410000000      6.347606250000000      0.687759730000000
Si      7.748730920000000      6.218025300000000      2.569968950000000
C       9.323562669999999      7.121580660000000      3.214853060000000
Si      6.199879050000000     -0.002678820000000      0.032491200000000
C       7.701963440000000      0.907428970000000      0.642238940000000
Si      7.802966180000000      0.913307660000000      2.512300740000000
C       9.313225310000000      1.905037680000000      3.242574920000000
Si      7.784876880000000      2.672192410000000      0.058347800000000
C       9.235557710000000      3.567978250000000      0.738746700000000
Si      9.315728600000000      3.616419960000000      2.589526250000000
C      10.937391500000000      4.477844830000000      3.161713240000000
Si      9.264612160000000      5.405561190000000      0.023564860000000
C      10.749045069999999      6.250076470000000      0.668484720000000
Si     10.830688800000001      6.255558260000000      2.556358570000000
C      12.414983469999999      7.145463540000000      3.195574660000000
36

Si     -0.003416150000000      0.003569560000000     -0.062581430000000
C       1.504672230000000      0.965234750000000      0.609081280000000
Si      1.509149110000000      0.927447120000000      2.427425920000000
C       3.027700630000000      1.755614500000000      3.040002350000000
Si      1.500209290000000      2.786124190000000      0.006593370000000
C       3.081148460000000      3.657169560000000      0.576925000000000
Si      3.101070460000000      3.568969800000000      2.421449030000000
C       4.613645070000000      4.371422930000000      3.187384740000000
Si      3.062455500000000      5.362640850000000     -0.010957490000000
C       4.629595970000000      6.230052510000000      0.620586170000000
Si      4.560893050000000      6.195772000000000      2.512827730000000
C       6.143095970000000      7.166024920000000      3.115324740000000
Si      3.162010310000000      0.019345150000000     -0.007846750000000
C       4.695292080000000      0.841296230000000      0.697037890000000
Si      4.635222860000000      0.898050990000000      2.577845260000000
C       6.115260990000000      1.728732860000000      3.168602270000000
Si      4.703406000000000      2.638600180000000      0.044130540000000
C       6.205233940000000      3.557710410000000      0.731203090000000
Si      6.255871500000000      3.514986420000000      2.596557550000000
C       7.742259370000000      4.535163750000000      3.286022290000000
Si      6.233022200000000      5.278553320000000      0.108243760000000
C       7.721505280000000      6.265385510000000      0.643183200000000
Si      7.772005880000000      6.287063380000000      2.615870520000000
C       9.373301469999999      7.152897630000000      3.246522920000000
Si      6.214603360000000     -0.058085340000000     -0.054136900000000
C       7.740431890000000      0.971172530000000      0.613686150000000
Si      7.679691460000000      0.907033570000000      2.474060170000000
C       9.170179750000001      1.722943950000000      3.173598720000000
Si      7.830285370000000      2.719402740000000      0.007183310000000
C       9.327116609999999      3.621855770000000      0.736168940000000
Si      9.223406799999999      3.611751930000000      2.644498310000000
C      10.820848860000000      4.417580910000000      3.192259970000000
Si      9.310564200000000      5.398819700000000      0.011452470000000
C      10.873849379999999      6.298386390000000      0.754047100000000
Si     10.982000490000001      6.265344270000000      2.599856860000000
C      12.317014860000000      7.204036320000000      3.210333370000000
36

Si     -0.036367270000000      0.076171400000000      0.057822910000000
C       1.640871150000000      0.911368320000000      0.802230500000000
Si      1.651846060000000      0.861836670000000      2.662371940000000
C       3.028299510000000      1.915547790000000      3.344001200000000
Si      1.547087630000000      2.549473650000000      0.125298180000000
C       3.088905500000000      3.627159850000000      0.646021540000000
Si      2.986950310000000      3.581531790000000      2.520135160000000
C       4.523511880000000      4.293816980000000      3.113649840000000
Si      3.019712620000000      5.427740010000000     -0.079824300000000
C       4.487470190000000      6.327169210000000      0.615434860000000
Si      4.676964220000000      6.211572440000000      2.449982660000000
C       6.339817910000000      7.190056430000000      3.238413020000000
Si      3.125464200000000     -0.030510890000000      0.105311030000000
C       4.586159830000000      0.969636460000000      0.727527590000000
Si      4.637021490000000      0.883299030000000      2.640242290000000
C       6.320659810000000      1.748565320000000      3.242605080000000
Si      4.522372050000000      2.731881360000000     -0.083354170000000
C       6.229347180000000      3.648400690000000      0.616071780000000
Si      6.226007980000000      3.658880560000000      2.404973620000000
C       7.655263440000000      4.584378500000000      3.150376250000000
Si      6.336218900000000      5.412236760000000      0.060807400000000
C       7.873215610000000      6.218583530000000      0.767245280000000
Si      7.841223620000000      6.318590700000000      2.655375260000000
C       9.350177990000001      7.145425330000000      3.067880840000000
Si      6.227363310000000      0.081288280000000      0.135683130000000
C       7.714441060000000      1.031507220000000      0.702686200000000
Si      7.752777510000000      0.890902460000000      2.585949200000000
C       9.160668319999999      1.680416650000000      3.111157250000000
Si      7.640525670000000      2.665949340000000     -0.065231780000000
C       9.215840910000001      3.563487680000000      0.524765330000000
Si      9.105142830000000      3.393267390000000      2.436516900000000
C      10.567817670000000      4.361026950000000      3.122693780000000
Si      9.475408509999999      5.249615730000000     -0.087359840000000
C      10.742191470000000      6.335119180000000      0.603433370000000
Si     11.010481490000000      6.276720100000000      2.409188500000000
C      12.545342850000001      7.109638950000000      3.155699360000000
36

Si     -0.284762470000000      0.081928850000000     -0.098510270000000
C       1.328682280000000      0.951318310000000      0.511747280000000
Si      1.373806370000000      0.954397230000000      2.364274240000000
C       2.960176080000000      1.762668570000000      2.920289940000000
Si      1.678418280000000      2.546470270000000     -0.053904600000000
C       3.238733940000000      3.575310800000000      0.705927520000000
Si      2.948835980000000      3.651535180000000      2.355853880000000
C       4.622397430000000      4.524699310000000      2.947889510000000
Si      3.089341610000000      5.462985250000000      0.042721670000000
C       4.562297840000000      6.314276100000000      0.661139970000000
Si      4.684652640000000      6.379864930000000      2.474074240000000
C       6.209412720000000      6.949084860000000      3.221377210000000
Si      3.092319420000000     -0.019953530000000     -0.098052940000000
C       4.629407710000000      0.883447690000000      0.406844090000000
Si      4.559589820000000      0.873766000000000      2.427877290000000
C       6.051071090000000      1.690230310000000      3.044795440000000
Si      4.881816420000000      2.720930790000000      0.036744520000000
C       6.466582520000000      3.599245800000000      0.462284870000000
Si      6.198466030000000      3.609741480000000      2.333343240000000
C       7.614324000000000      4.518447620000000      3.283063340000000
Si      6.113565600000000      5.545500410000000     -0.016817070000000
C       7.666900490000000      6.443466940000000      0.996590430000000
Si      7.647604080000000      6.170929220000000      2.717348830000000
C       9.404684200000000      7.186713910000000      3.025107210000000
Si      5.975587390000000     -0.107656800000000     -0.053096530000000
C       7.552736380000000      0.694033920000000      0.696819740000000
Si      7.703427280000000      0.810475310000000      2.569504290000000
C       9.238084910000000      1.977502320000000      3.054281580000000
Si      8.043928120000000      2.514544280000000      0.402820980000000
C       9.471269270000001      3.479034820000000      0.783364750000000
Si      9.584656280000001      3.741972530000000      2.771886040000000
C      11.152789439999999      4.585130340000000      3.569351250000000
Si      9.393140620000000      5.121018820000000      0.263262870000000
C      10.743775940000001      6.156247560000000      0.745256170000000
Si     10.932171520000001      6.233329290000000      2.611557300000000
C      12.459806170000000      7.250413810000000      3.242180260000000
36

Si      0.163229140000000     -0.002333600000000     -0.047232120000000
C       1.615863250000000      0.937329130000000      0.628837530000000
Si      1.513608850000000      1.005781150000000      2.565484870000000
C       3.147398410000000      1.798807240000000      3.200812500000000
Si      1.596451450000000      2.781418940000000      0.040522670000000
C       3.160130380000000      3.528217200000000      0.673132170000000
Si      3.100145060000000      3.530729130000000      2.520675050000000
C       4.595682190000000      4.508166900000000      3.114639580000000
Si      3.099638680000000      5.304401910000000     -0.042856230000000
C       4.607708950000000      6.250178400000000      0.574294730000000
Si      4.551053580000000      6.210561200000000      2.491888460000000
C       6.124854930000000      7.190680280000000      3.099577270000000
Si      3.163507280000000      0.054860780000000      0.003228860000000
C       4.712472240000000      0.873779900000000      0.674280420000000
Si      4.647729000000000      0.856998740000000      2.549576720000000
C       6.245911790000000      1.693208320000000      3.174334310000000
Si      4.694241700000000      2.694422280000000      0.027254240000000
C       6.155798910000000      3.497827110000000      0.688555790000000
Si      6.106708230000000      3.563689360000000      2.606440570000000
C       7.711772600000000      4.483196080000000      3.180168790000000
Si      6.065217970000000      5.281415450000000      0.071322970000000
C       7.671234770000000      6.319401320000000      0.616530520000000
Si      7.629197720000000      6.275749830000000      2.575587090000000
C       9.269976150000000      7.128992780000000      3.250900940000000
Si      6.310322000000000     -0.022619130000000      0.011897250000000
C       7.855947450000000      0.790186630000000      0.607028250000000
Si      7.760545960000000      0.849432100000000      2.535395350000000
C       9.325874150000001      1.933111240000000      3.049903370000000
Si      7.773371750000000      2.697923750000000      0.080616330000000
C       9.305102690000000      3.652180340000000      0.618513010000000
Si      9.295143890000000      3.626692530000000      2.493506270000000
C      10.856000460000001      4.473864650000000      3.199329380000000
Si      9.285917639999999      5.420383480000000      0.027582790000000
C      10.817967090000000      6.193041810000000      0.639949120000000
Si     10.794287530000000      6.215878930000000      2.593720870000000
C      12.348343699999999      7.163752840000000      3.161899150000000
36

Si      0.010717590000000      0.053777020000000      0.104581570000000
C       1.681259710000000      0.902359450000000      0.660015260000000
Si      1.616674560000000      0.859504260000000      2.490426400000000
C       3.086224460000000      1.810749570000000      3.206192230000000
Si      1.588772660000000      2.674956480000000      0.091336830000000
C       3.121176720000000      3.516190870000000      0.701965650000000
Si      3.145315360000000      3.637916760000000      2.560584120000000
C       4.605941090000000      4.453329860000000      3.234065180000000
Si      3.134977560000000      5.363949210000000      0.012867200000000
C       4.602507170000000      6.261192840000000      0.756204510000000
Si      4.666862150000000      6.243792430000000      2.597479750000000
C       6.256076040000000      7.167111790000000      3.118618510000000
Si      3.163922590000000      0.028501570000000     -0.053377360000000
C       4.669966190000000      0.972073000000000      0.684315860000000
Si      4.608151300000000      0.852899510000000      2.613969050000000
C       6.211957070000000      1.751322360000000      3.141657640000000
Si      4.581608480000000      2.772230620000000     -0.039964510000000
C       6.166906650000000      3.518675590000000      0.551772130000000
Si      6.127644070000000      3.535667990000000      2.472444540000000
C       7.702419100000000      4.490444610000000      3.106693130000000
Si      6.097133560000000      5.409214390000000      0.090588420000000
C       7.713965170000000      6.207575370000000      0.559150270000000
Si      7.744882590000000      6.266753660000000      2.477770470000000
C       9.223739980000000      7.198402660000000      3.198556900000000
Si      6.232545130000000      0.022183720000000      0.092768830000000
C       7.761458520000000      0.943180940000000      0.644262660000000
Si      7.816550930000000      0.889870840000000      2.574886810000000
C       9.320779419999999      1.665492620000000      3.182207150000000
Si      7.743976670000000      2.683789800000000     -0.045528980000000
C       9.328499290000000      3.568959320000000      0.648263420000000
Si      9.314300330000000      3.557536430000000      2.571930080000000
C      10.823554610000000      4.499039390000000      3.157155250000000
Si      9.197205889999999      5.270749600000000     -0.068172450000000
C      10.853706109999999      6.239596400000000      0.624387430000000
Si     10.814297910000001      6.256949480000000      2.508703700000000
C      12.268776640000000      7.168719010000000      3.097200180000000
36

Si     -0.159355010000000     -0.041244580000000      0.013359620000000
C       1.500259940000000      0.857884320000000      0.662867820000000
Si      1.485506220000000      0.846171020000000      2.542118890000000
C       3.166241690000000      1.724562960000000      3.086087020000000
Si      1.440973700000000      2.641719260000000      0.034684500000000
C       3.086997330000000      3.582081070000000      0.540953100000000
Si      2.964259030000000      3.445674900000000      2.483684290000000
C       4.459139860000000      4.438041760000000      3.247789230000000
Si      3.210706130000000      5.365513730000000      0.009707270000000
C       4.766201060000000      6.114256140000000      0.693682380000000
Si      4.742065980000000      6.235294640000000      2.610052970000000
C       6.170963300000000      7.219522920000000      3.136970800000000
Si      3.029330700000000      0.052571960000000     -0.011901980000000
C       4.598006350000000      0.801574210000000      0.659800540000000
Si      4.921932530000000      0.915710080000000      2.633358990000000
C       6.248040420000000      1.992719660000000      3.231486120000000
Si      4.609601180000000      2.666100470000000      0.021352620000000
C       6.148642200000000      3.665402370000000      0.579065850000000
Si      6.225031740000000      3.843956110000000      2.421214480000000
C       7.575093910000000      4.595267460000000      3.292053440000000
Si      6.271829820000000      5.299348560000000     -0.011874940000000
C       7.826661390000000      6.177729260000000      0.594972470000000
Si      7.856260120000000      6.514821410000000      2.526573630000000
C       9.427555740000001      7.104547960000000      3.184390840000000
Si      6.078019730000000     -0.056119490000000     -0.007433340000000
C       7.473252100000000      1.001354590000000      0.656184290000000
Si      7.778776830000000      0.957138390000000      2.587141820000000
C       9.311729059999999      1.830810910000000      3.129324290000000
Si      7.749726560000000      2.625423140000000      0.014160730000000
C       9.214688689999999      3.500834990000000      0.607385940000000
Si      9.259717930000001      3.501297450000000      2.586453960000000
C      10.665438290000001      4.457924860000000      3.142527110000000
Si      9.368094839999999      5.372123570000000      0.062074160000000
C      10.927335390000000      6.208912080000000      0.592824860000000
Si     10.896298050000000      6.152491360000000      2.547954470000000
C      12.544500810000001      7.159786160000000      3.212365980000000
36

Si     -0.008249220000000     -0.153024670000000     -0.301305610000000
C       1.510746710000000      0.814591200000000      0.680747630000000
Si      1.310044470000000      0.852456190000000      2.590406830000000
C       2.888176900000000      1.833853450000000      2.890073160000000
Si      1.751026060000000      2.630865020000000     -0.097433610000000
C       3.235533140000000      3.579534170000000      0.664667840000000
Si      3.214528060000000      3.669756730000000      2.430717110000000
C       4.701013980000000      4.387459430000000      3.112015680000000
Si      3.310212510000000      5.400811700000000      0.299608920000000
C       4.910600050000000      6.355262450000000      0.923303940000000
Si      4.552027160000000      6.185450230000000      2.659046400000000
C       6.127489190000000      7.122564840000000      3.354984390000000
Si      2.861041050000000     -0.090987770000000      0.046897630000000
C       4.561349170000000      0.826341440000000      0.591284990000000
Si      4.683576260000000      1.287494460000000      2.407045710000000
C       6.192183220000000      1.910556710000000      3.232196240000000
Si      4.807572630000000      2.612914660000000     -0.042712180000000
C       6.196872130000000      3.610854160000000      0.446150270000000
Si      6.483130750000000      3.695045540000000      2.366318820000000
C       7.951679610000000      4.585308570000000      2.975917230000000
Si      6.193171800000000      5.375449570000000      0.171921640000000
C       7.821448410000000      6.285302220000000      0.675310240000000
Si      7.711693920000000      6.520572270000000      2.742985950000000
C       9.029752739999999      7.365547050000000      3.435555100000000
Si      6.013036650000000     -0.039884570000000     -0.053888140000000
C       7.654155410000000      0.781894130000000      0.431221330000000
Si      7.477241780000000      0.939658620000000      2.448363710000000
C       8.938135140000000      1.692135550000000      3.263625560000000
Si      7.721128890000000      2.466737570000000      0.001664740000000
C       9.440483340000000      3.444392480000000      0.555809070000000
Si      9.410942349999999      3.511949970000000      2.354864360000000
C      10.843435260000000      4.503412060000000      3.293577040000000
Si      9.356445300000001      5.193776540000000      0.101281510000000
C      10.855580979999999      6.071067290000000      0.931008090000000
Si     10.827937070000001      6.306755030000000      2.750408680000000
C      12.374332660000000      7.198119370000000      3.229355860000000
36

Si      0.033191480000000      0.061421100000000      0.218870890000000
C       1.699738400000000      0.995648370000000      0.727040880000000
Si      1.844019320000000      0.838106110000000      2.786784580000000
C       3.430894030000000      1.599004950000000      3.327820510000000
Si      1.593440270000000      2.636298690000000     -0.024023280000000
C       3.048015610000000      3.652776970000000      0.891947420000000
Si      3.069831220000000      3.582994260000000      2.578073470000000
C       4.799642140000000      4.459793170000000      3.241351030000000
Si      2.939749670000000      5.421270280000000      0.188216450000000
C       4.653129890000000      6.221347460000000      0.702503230000000
Si      4.945433670000000      6.187332180000000      2.707407350000000
C       6.352720880000000      6.908016310000000      3.442967730000000
Si      3.117593070000000      0.138490700000000      0.271175690000000
C       4.618906520000000      0.953556460000000      0.656890110000000
Si      4.851319200000000      0.898130740000000      2.476820860000000
C       6.383637700000000      1.784222980000000      3.228821290000000
Si      4.482109270000000      2.655635940000000     -0.025635680000000
C       6.187922950000000      3.504154080000000      0.591015140000000
Si      6.077584280000000      3.613364150000000      2.443331280000000
C       7.789474150000000      4.274983210000000      3.141568130000000
Si      6.075165550000000      5.677404060000000      0.097001450000000
C       7.549531380000000      6.478731020000000      0.552348820000000
Si      7.744695600000000      5.834126190000000      2.527042390000000
C       9.263066220000001      7.081924850000000      3.222763850000000
Si      6.031074250000000      0.074792590000000     -0.100978070000000
C       7.565127240000000      0.967421950000000      0.390743140000000
Si      7.867877070000000      1.024386280000000      2.391562850000000
C       9.439138620000000      1.778038710000000      2.941986570000000
Si      7.588040770000000      2.694343130000000     -0.165195420000000
C       9.330417960000000      3.664161220000000      0.316584820000000
Si      9.233169520000001      3.405683940000000      2.253108090000000
C      10.526082840000001      4.563696510000000      2.971662410000000
Si      9.105776440000000      5.429202720000000     -0.018714760000000
C      10.593455620000000      6.368837150000000      0.532370400000000
Si     10.874153250000001      6.221656780000000      2.546015030000000
C      12.475068540000001      7.044437730000000      3.164151630000000
36

Si     -0.006722770000000      0.162187380000000      0.006174720000000
C       1.556963850000000      0.835160110000000      0.536263260000000
Si      1.561847290000000      0.942879460000000      2.551248640000000
C       2.976203960000000      1.966594720000000      3.159181100000000
Si      1.634939960000000      2.701122730000000     -0.138587140000000
C       3.021705850000000      3.647180570000000      0.512159950000000
Si      3.089373530000000      3.683949590000000      2.429444240000000
C       4.746484970000000      4.396458050000000      3.097542940000000
Si      3.089166620000000      5.460073400000000      0.171754680000000
C       4.745173150000000      6.384246060000000      0.926751460000000
Si      4.684018010000000      6.311858390000000      2.650331040000000
C       6.191934210000000      7.264216230000000      3.229208160000000
Si      3.134047370000000     -0.124838950000000      0.053108650000000
C       4.751950940000000      0.986753170000000      0.788636450000000
Si      4.562974660000000      0.940366990000000      2.601438840000000
C       6.179607710000000      1.683000610000000      3.323628780000000
Si      4.727772760000000      2.660887260000000     -0.080439520000000
C       6.049728210000000      3.540742870000000      0.699603810000000
Si      6.375150130000000      3.397396460000000      2.492617190000000
C       7.828976830000000      4.169815660000000      3.135449000000000
Si      6.114536040000000      5.324339760000000      0.129381450000000
C       7.703795580000000      6.225359200000000      0.758902460000000
Si      7.624627480000000      6.017721180000000      2.660240090000000
C       9.124237989999999      7.052304170000000      3.364315640000000
Si      6.266408530000000     -0.080015750000000     -0.129496410000000
C       7.807558510000000      0.886338640000000      0.783320640000000
Si      7.770428580000000      0.771965030000000      2.543512050000000
C       9.414815450000001      1.855809290000000      3.185118690000000
Si      7.746619510000000      2.680528880000000     -0.013289790000000
C       9.371638960000000      3.589234800000000      0.559993960000000
Si      9.347104399999999      3.646746310000000      2.414967260000000
C      10.805410830000000      4.664743980000000      3.186385770000000
Si      9.163796650000000      5.393825080000000     -0.047875070000000
C      10.715375600000000      6.240992200000000      0.620539130000000
Si     10.719201500000000      6.428051860000000      2.451422250000000
C      12.407933740000001      7.088567150000000      3.124342950000000
36

Si     -0.031399370000000      0.141220540000000      0.077778160000000
C       1.493744710000000      1.066298870000000      0.717194720000000
Si      1.744130710000000      0.917002020000000      2.570650010000000
C       3.290737170000000      1.810875980000000      3.252102550000000
Si      1.558918930000000      2.724884980000000     -0.004415810000000
C       3.143583380000000      3.563319960000000      0.512076500000000
Si      3.214573320000000      3.519650160000000      2.272643360000000
C       4.694416350000000      4.381960280000000      2.943787380000000
Si      3.106333780000000      5.492646970000000      0.084846200000000
C       4.586517870000000      6.397830400000000      0.730554990000000
Si      4.544302280000000      6.204743620000000      2.637804120000000
C       6.392597030000000      7.225307030000000      3.188464070000000
Si      3.045363950000000      0.030059460000000      0.146793380000000
C       4.640826880000000      0.873240950000000      0.941766460000000
Si      4.788117380000000      0.884152760000000      2.760785160000000
C       6.391540210000000      1.875660620000000      3.337463490000000
Si      4.585961120000000      2.509717790000000      0.015214520000000
C       6.249333620000000      3.469388220000000      0.647608830000000
Si      6.125067240000000      3.581214720000000      2.464505930000000
C       7.825845850000000      4.494941020000000      3.079718940000000
Si      6.077113960000000      5.329514320000000     -0.022527370000000
C       7.642793430000000      6.305930580000000      0.551550650000000
Si      7.694024970000000      6.292394210000000      2.534546770000000
C       9.342435900000000      7.168721070000000      3.137932480000000
Si      6.099129190000000      0.028810010000000      0.075364260000000
C       7.694449370000000      0.926289020000000      0.703822270000000
Si      7.760619890000000      0.930767300000000      2.616114060000000
C       9.388445010000000      1.750902390000000      3.208303400000000
Si      7.706590950000000      2.675153910000000     -0.139091270000000
C       9.273000260000000      3.587197030000000      0.570660080000000
Si      9.204366940000000      3.551774620000000      2.395324960000000
C      10.996707340000000      4.423867010000000      3.151939440000000
Si      9.297983150000000      5.294411830000000     -0.118133590000000
C      10.753474260000001      6.256237660000000      0.732424310000000
Si     10.747929590000000      6.083956620000000      2.539682170000000
C      12.385100930000000      7.196443450000000      3.205325960000000
36

Si      0.256033790000000      0.130249600000000      0.190650750000000
C       1.856036530000000      0.815036340000000      0.803992580000000
Si      1.657547240000000      0.832795090000000      2.667825110000000
C       3.211318660000000      1.724257490000000      3.414990060000000
Si      1.610840870000000      2.574647310000000      0.188082610000000
C       3.192007130000000      3.544309810000000      0.662698400000000
Si      2.925555620000000      3.491818710000000      2.411734880000000
C       4.438703080000000      4.403463590000000      3.281032690000000
Si      3.246474570000000      5.544942660000000      0.060485690000000
C       4.957761050000000      6.212721400000000      0.723211690000000
Si      4.512610420000000      6.241158150000000      2.483231190000000
C       6.180520230000000      6.992053510000000      3.234771130000000
Si      3.228680500000000     -0.194901020000000      0.062459130000000
C       4.707880260000000      1.041217000000000      0.524321460000000
Si      4.756547120000000      1.008417280000000      2.834393270000000
C       6.256357730000000      1.823370760000000      3.290242630000000
Si      4.510571130000000      2.602284470000000     -0.197866550000000
C       6.070353240000000      3.544768270000000      0.639099680000000
Si      5.998429990000000      3.763442880000000      2.621247840000000
C       7.570976830000000      4.485486960000000      3.122852030000000
Si      6.241107750000000      5.177381200000000      0.087136280000000
C       7.779614480000000      6.042112340000000      0.627617240000000
Si      7.783307680000000      6.282946180000000      2.439583290000000
C       9.317918890000000      7.177849610000000      3.189903780000000
Si      6.177298510000000      0.044963790000000     -0.048127600000000
C       7.815800640000000      0.925499200000000      0.600640380000000
Si      7.685661740000000      0.985288090000000      2.357649320000000
C       9.319702599999999      1.907969220000000      3.048483660000000
Si      7.684412900000000      2.660391980000000      0.130404520000000
C       9.280246340000000      3.357496160000000      0.616564220000000
Si      9.170049349999999      3.712822920000000      2.586611210000000
C      10.642904059999999      4.687328860000000      3.146242170000000
Si      9.336647290000000      5.191897040000000     -0.134461140000000
C      10.827528350000000      6.149641310000000      0.376535730000000
Si     10.658104460000001      6.431274160000000      2.331892610000000
C      12.360645340000000      7.262315460000000      2.923564170000000
36

Si      0.056090950000000      0.132283920000000      0.141598020000000
C       1.621105880000000      1.072746270000000      0.591098730000000
Si      1.539489720000000      0.934473180000000      2.560603810000000
C       3.166696220000000      1.727685240000000      3.201896110000000
Si      1.742525670000000      2.757824980000000     -0.179727590000000
C       3.273878950000000      3.571653980000000      0.587374160000000
Si      2.983129720000000      3.582726830000000      2.536737360000000
C       4.664595150000000      4.446521790000000      2.901894480000000
Si      3.076615030000000      5.560294850000000      0.074227540000000
C       4.568649090000000      6.355493720000000      0.711623920000000
Si      4.596464720000000      6.331251990000000      2.549326360000000
C       6.201896500000000      7.097084610000000      3.207888920000000
Si      3.131358610000000     -0.167712560000000      0.066507620000000
C       4.705052120000000      0.939445860000000      0.744904310000000
Si      4.633022800000000      0.844758570000000      2.663096650000000
C       6.428857590000000      1.902830030000000      3.245901750000000
Si      4.632595730000000      2.632996640000000     -0.042756170000000
C       6.290611240000000      3.398249200000000      0.556707780000000
Si      6.187399380000000      3.468273840000000      2.515587420000000
C       7.764511920000000      4.476824230000000      3.067872660000000
Si      6.040804230000000      5.201992030000000      0.032929600000000
C       7.676733900000000      6.203683270000000      0.752166040000000
Si      7.634238910000000      6.199081160000000      2.684100920000000
C       9.185519970000000      7.065394730000000      3.029182350000000
Si      6.114940440000000      0.093447270000000      0.091769060000000
C       7.861520930000000      1.018636560000000      0.577485070000000
Si      7.827469870000000      0.855982110000000      2.602628360000000
C       9.228141750000001      1.756517840000000      3.211765300000000
Si      7.886684940000000      2.793372770000000     -0.131197390000000
C       9.458978760000001      3.539281350000000      0.609611310000000
Si      9.241924750000001      3.546040690000000      2.608917850000000
C      10.899801200000001      4.462480750000000      3.190985430000000
Si      9.292064730000000      5.326242410000000      0.049241120000000
C      10.705014370000001      6.307941520000000      0.428781330000000
Si     10.729629950000000      6.185356740000000      2.377712770000000
C      12.303180480000000      7.229415440000000      3.309452500000000
36

Si     -0.034009480000000     -0.043489140000000     -0.061327210000000
C       1.560194450000000      0.861623070000000      0.667117760000000
Si      1.591622610000000      0.926777260000000      2.518755460000000
C       3.083156820000000      1.791230440000000      3.119835580000000
Si      1.551106280000000      2.690961480000000     -0.017482640000000
C       3.091369880000000      3.494218060000000      0.553329150000000
Si      3.068598080000000      3.575551700000000      2.465077070000000
C       4.592234090000000      4.521424140000000      3.185307860000000
Si      2.976609520000000      5.406410740000000      0.024652390000000
C       4.601740750000000      6.197742210000000      0.537202010000000
Si      4.639224980000000      6.304283770000000      2.433740960000000
C       6.166789290000000      7.197814560000000      3.196266080000000
Si      3.031034180000000     -0.082057650000000      0.065696500000000
C       4.660265880000000      0.826794970000000      0.580154380000000
Si      4.758396790000000      0.852732640000000      2.483454910000000
C       6.272985420000000      1.796096140000000      3.227238760000000
Si      4.664796450000000      2.619097650000000      0.083641760000000
C       6.189133840000000      3.519892220000000      0.671611940000000
Si      6.312802800000000      3.602651550000000      2.614737940000000
C       7.807066070000000      4.499058020000000      3.301341310000000
Si      6.211138830000000      5.352915040000000     -0.072132970000000
C       7.687447760000000      6.155461460000000      0.745578010000000
Si      7.687828290000000      6.282720010000000      2.604936030000000
C       9.217254150000000      7.245767290000000      3.131368730000000
Si      6.238230320000000     -0.046549330000000     -0.039676110000000
C       7.730745940000000      0.916091540000000      0.590491970000000
Si      7.777884670000000      0.904655970000000      2.550346380000000
C       9.253730859999999      1.721985460000000      3.146527210000000
Si      7.714260520000000      2.702461400000000      0.099347980000000
C       9.302753870000000      3.641540840000000      0.681580880000000
Si      9.387675910000000      3.571482410000000      2.503140720000000
C      10.870159830000000      4.517945450000000      3.181918650000000
Si      9.239343110000000      5.415383520000000      0.087262760000000
C      10.834634420000000      6.275348700000000      0.745100520000000
Si     10.859660509999999      6.325284690000000      2.624767370000000
C      12.312013470000000      7.198739100000000      3.207961550000000
36

Si     -0.048136840000000      0.083266590000000      0.086140690000000
C       1.589659040000000      0.893250520000000      0.654359190000000
Si      1.499657240000000      0.783093650000000      2.572612060000000
C       3.005405110000000      1.756122420000000      3.204478030000000
Si      1.538375060000000      2.673247410000000     -0.032265350000000
C       3.087827460000000      3.536031110000000      0.677780880000000
Si      2.984628150000000      3.556829420000000      2.513261670000000
C       4.690072250000000      4.529519490000000      3.102564180000000
Si      3.155101480000000      5.374811710000000      0.090578530000000
C       4.711980220000000      6.361733490000000      0.546654370000000
Si      4.702076170000000      6.273269190000000      2.521438980000000
C       6.235323730000000      7.080322350000000      3.246091580000000
Si      3.061567680000000     -0.073142770000000      0.093713270000000
C       4.567331890000000      0.973334520000000      0.590261720000000
Si      4.604846450000000      0.934795490000000      2.462084200000000
C       6.207188980000000      1.707985590000000      3.166009120000000
Si      4.712349880000000      2.687681540000000      0.015911110000000
C       6.239163810000000      3.658236000000000      0.640022920000000
Si      6.221466630000000      3.569385900000000      2.619821610000000
C       7.801852890000000      4.458595070000000      3.181902020000000
Si      6.289742770000000      5.399979410000000     -0.117676800000000
C       7.820552660000000      6.260803040000000      0.652970550000000
Si      7.807151690000000      6.276522920000000      2.570481440000000
C       9.300599630000001      7.160106300000000      3.142995920000000
Si      6.211185470000000      0.041807170000000     -0.068790250000000
C       7.677532110000000      0.914499370000000      0.754820530000000
Si      7.635277020000000      0.818615260000000      2.563626460000000
C       9.254378250000000      1.824342960000000      3.140402240000000
Si      7.711309390000000      2.707001320000000     -0.041459490000000
C       9.214622120000000      3.575043310000000      0.639316620000000
Si      9.233834490000000      3.523007300000000      2.557056100000000
C      10.786185400000001      4.452008820000000      3.106038400000000
Si      9.391239219999999      5.391624170000000      0.011522490000000
C      10.903399739999999      6.271911380000000      0.688512990000000
Si     10.825901529999999      6.281794770000000      2.605866550000000
C      12.464764199999999      7.099809520000000      3.206181220000000
36

Si     -0.121516190000000      0.098168550000000      0.032282970000000
C       1.512953740000000      0.823000100000000      0.603207020000000
Si      1.466247410000000      0.846464110000000      2.449540340000000
C       2.955773520000000      1.713614600000000      3.125154340000000
Si      1.510931910000000      2.614910770000000      0.008199290000000
C       3.168579690000000      3.497557440000000      0.532261270000000
Si      3.030245010000000      3.576396630000000      2.521492960000000
C       4.595768120000000      4.458932960000000      3.111487000000000
Si      3.175474990000000      5.344126310000000      0.021867980000000
C       4.700535710000000      6.311527430000000      0.689676370000000
Si      4.706756680000000      6.323461370000000      2.561304380000000
C       6.340122980000000      7.133462750000000      3.164541050000000
Si      3.145910780000000     -0.082585580000000     -0.030628560000000
C       4.637721490000000      0.856661900000000      0.636734250000000
Si      4.550290130000000      0.888728560000000      2.551106340000000
C       6.202587660000000      1.775974190000000      3.145326160000000
Si      4.647271420000000      2.680594910000000     -0.025966910000000
C       6.217914710000000      3.537439250000000      0.630537950000000
Si      6.199385850000000      3.620434030000000      2.588227310000000
C       7.713491120000000      4.485609620000000      3.175106020000000
Si      6.235034340000000      5.466631920000000      0.081753410000000
C       7.844469630000000      6.165984520000000      0.649226730000000
Si      7.873412840000000      6.249832810000000      2.549735130000000
C       9.365908510000001      7.246094510000000      3.223141640000000
Si      6.122719070000000     -0.021642580000000     -0.011608190000000
C       7.681387740000000      0.937885120000000      0.640830540000000
Si      7.679180260000000      0.938783870000000      2.575123700000000
C       9.198414630000000      1.730094400000000      3.196599680000000
Si      7.718685070000000      2.765988770000000      0.051827220000000
C       9.322073280000000      3.558584260000000      0.625468010000000
Si      9.289877890000000      3.564839520000000      2.580976140000000
C      10.826763520000000      4.488954800000000      3.232422140000000
Si      9.384875930000000      5.343412210000000     -0.010246960000000
C      10.936794369999999      6.165157930000000      0.628892700000000
Si     10.886365700000001      6.291405510000000      2.593931490000000
C      12.421750760000000      7.144581900000000      3.178771410000000
36

Si     -0.326631360000000      0.033794570000000     -0.272118860000000
C       1.388638890000000      0.986162810000000      0.624488280000000
Si      1.361444200000000      0.819183940000000      2.486333230000000
C       2.938137020000000      1.804210190000000      2.949861820000000
Si      1.419777310000000      2.711123500000000     -0.083704040000000
C       3.134835040000000      3.562796220000000      0.483123330000000
Si      3.269623750000000      3.408514520000000      2.499568130000000
C       4.880995260000000      4.394024920000000      2.960855090000000
Si      3.066437000000000      5.424222700000000      0.150579610000000
C       4.710332690000000      6.245931330000000      0.656184310000000
Si      4.678467120000000      6.257851350000000      2.441109720000000
C       6.260539060000000      7.249017870000000      3.277543820000000
Si      2.816316840000000      0.136395410000000     -0.005895600000000
C       4.470402030000000      0.736570790000000      0.636083750000000
Si      4.746051900000000      0.846614090000000      2.414827560000000
C       6.187526350000000      1.833501530000000      3.206777940000000
Si      4.768324250000000      2.633042080000000     -0.084012450000000
C       6.292544190000000      3.724068640000000      0.590493110000000
Si      6.527972180000000      3.737902830000000      2.522490750000000
C       8.006159940000000      4.563835350000000      2.993273310000000
Si      6.199563350000000      5.441883260000000      0.112245020000000
C       7.682851600000000      6.387176950000000      0.728269260000000
Si      7.886181120000000      6.322598770000000      2.641655970000000
C       9.280924680000000      7.277753940000000      3.241230240000000
Si      6.003584390000000      0.120288340000000     -0.062784790000000
C       7.478110680000000      1.003918530000000      0.380866170000000
Si      7.530907060000000      0.610435080000000      2.520282110000000
C       9.052952120000000      1.594819120000000      3.236393330000000
Si      7.783836110000000      2.693817310000000     -0.030508330000000
C       9.135770669999999      3.742481520000000      0.983583540000000
Si      9.714508670000001      3.432831450000000      2.687957920000000
C      11.094804690000000      4.491589880000000      3.286769880000000
Si      9.255533010000001      5.332498970000000      0.135657580000000
C      10.935377740000000      6.342950180000000      0.998828740000000
Si     10.902836010000000      6.170161220000000      2.847932920000000
C      12.469896950000001      6.971366940000000      3.345962190000000
36

Si     -0.056182120000000      0.017448910000000     -0.079035220000000
C       1.574251720000000      0.872111150000000      0.608894050000000
Si      1.527199810000000      0.763233930000000      2.495669610000000
C       2.895945320000000      1.790837830000000      3.212479270000000
Si      1.536830080000000      2.619383770000000      0.003571450000000
C       3.090482260000000      3.582826680000000      0.638830090000000
Si      3.097878220000000      3.621149270000000      2.489130170000000
C       4.598164280000000      4.517013250000000      3.164708040000000
Si      3.182232320000000      5.373571060000000     -0.054833670000000
C       4.719525340000000      6.303532340000000      0.659850890000000
Si      4.630561400000000      6.217210960000000      2.488512820000000
C       6.162369780000000      7.101303710000000      3.077684980000000
Si      3.086171410000000     -0.030523180000000      0.006713090000000
C       4.619175650000000      0.829359730000000      0.649748130000000
Si      4.542327770000000      0.921419040000000      2.572565910000000
C       6.132841330000000      1.733684460000000      3.197843990000000
Si      4.683795390000000      2.711464400000000      0.010035390000000
C       6.184417550000000      3.602309400000000      0.594710880000000
Si      6.170312050000000      3.556206800000000      2.594447040000000
C       7.663857540000000      4.512003170000000      3.225817020000000
Si      6.286894930000000      5.432284840000000      0.073638760000000
C       7.872372220000000      6.300269640000000      0.762391940000000
Si      7.792379140000000      6.308799160000000      2.610856300000000
C       9.274703830000000      7.237620310000000      3.249334040000000
Si      6.156875690000000     -0.017512140000000      0.017956600000000
C       7.746180490000000      0.992676930000000      0.556178520000000
Si      7.727664340000000      0.880245840000000      2.460025560000000
C       9.254135180000000      1.700296620000000      3.192787310000000
Si      7.801808860000000      2.719431730000000     -0.055096550000000
C       9.336254520000001      3.585288830000000      0.655426420000000
Si      9.260198460000000      3.557726070000000      2.662255140000000
C      10.780669690000000      4.436813430000000      3.170256780000000
Si      9.393898690000000      5.375153300000000      0.077006300000000
C      10.880752940000001      6.272887600000000      0.712579000000000
Si     10.894575710000000      6.261390030000000      2.550900410000000
C      12.355873600000001      7.179079550000000      3.244747030000000
36

Si      0.022811810000000      0.068700100000000      0.214408480000000
C       1.707997970000000      0.983539000000000      0.733349710000000
Si      1.844379350000000      0.846948530000000      2.794311800000000
C       3.439433180000000      1.624634450000000      3.327395590000000
Si      1.584649590000000      2.619736070000000     -0.016606460000000
C       3.045567850000000      3.650075980000000      0.886399610000000
Si      3.064414880000000      3.592205420000000      2.579664780000000
C       4.779723040000000      4.491838250000000      3.233785070000000
Si      2.943475900000000      5.404508210000000      0.178568690000000
C       4.663485360000000      6.218728290000000      0.710198030000000
Si      4.942420350000000      6.187081380000000      2.705214160000000
C       6.359122980000000      6.908154030000000      3.434611990000000
Si      3.138049050000000      0.147228600000000      0.270906720000000
C       4.620907120000000      0.940774180000000      0.653338160000000
Si      4.848119980000000      0.885696480000000      2.491824220000000
C       6.395454120000000      1.776105550000000      3.235410370000000
Si      4.479255130000000      2.662041460000000     -0.017581350000000
C       6.164861240000000      3.500514490000000      0.598769730000000
Si      6.074671510000000      3.611747160000000      2.434866430000000
C       7.782816000000000      4.274927380000000      3.142749790000000
Si      6.072494110000000      5.669002920000000      0.105171860000000
C       7.548383060000000      6.462396330000000      0.538730710000000
Si      7.755123470000000      5.836498260000000      2.513819800000000
C       9.246319150000000      7.077910730000000      3.203431040000000
Si      6.047623340000000      0.087931230000000     -0.099517980000000
C       7.545039370000000      0.988843030000000      0.388435020000000
Si      7.876468800000000      1.017436010000000      2.395630050000000
C       9.448437040000000      1.761738430000000      2.928697030000000
Si      7.586810080000000      2.695905930000000     -0.157997390000000
C       9.295144479999999      3.660367060000000      0.329074190000000
Si      9.236735919999999      3.411283890000000      2.266279500000000
C      10.519498909999999      4.547503070000000      2.972473190000000
Si      9.107426710000000      5.432905940000000     -0.032663880000000
C      10.597360000000000      6.373628210000000      0.526833700000000
Si     10.884115160000000      6.222788450000000      2.543210900000000
C      12.464996850000000      7.047368610000000      3.157251150000000
36

Si      0.009234870000000      0.145245910000000     -0.132458270000000
C       1.590515390000000      0.858118160000000      0.717718300000000
Si      1.724381880000000      0.924620070000000      2.663371530000000
C       3.253143180000000      1.821084340000000      3.179090730000000
Si      1.403141940000000      2.681335870000000      0.036077740000000
C       3.050723460000000      3.383875770000000      0.641880100000000
Si      3.137854510000000      3.474415120000000      2.509687780000000
C       4.676120580000000      4.510890370000000      3.261864810000000
Si      3.154802330000000      5.248192880000000     -0.015137340000000
C       4.677505480000000      6.202950200000000      0.671975070000000
Si      4.656854610000000      6.232429970000000      2.522207880000000
C       6.286272620000000      7.232633060000000      3.215440040000000
Si      3.327361010000000     -0.000975950000000     -0.000110350000000
C       4.869546670000000      0.873106740000000      0.941639180000000
Si      4.796100390000000      0.718545430000000      2.865142200000000
C       6.391649340000000      1.749578510000000      3.252502800000000
Si      4.507631850000000      2.735089130000000     -0.066634870000000
C       6.061303310000000      3.730359900000000      0.624607650000000
Si      6.034739850000000      3.501437380000000      2.541261950000000
C       7.426394250000000      4.351029000000000      3.215156360000000
Si      6.007522230000000      5.340547570000000     -0.027655620000000
C       7.495245560000000      6.210555020000000      0.639263410000000
Si      7.428784610000000      6.164366340000000      2.628950940000000
C       9.116130610000001      6.988560970000000      3.055423610000000
Si      6.509176200000000      0.019472200000000      0.160218600000000
C       7.995045040000000      1.167083640000000      0.467473080000000
Si      7.881285630000000      0.888939300000000      2.718238500000000
C       9.300021200000000      1.790497350000000      3.325932430000000
Si      7.621448120000000      2.952600060000000     -0.049265730000000
C       9.175961800000000      3.671759930000000      0.534144530000000
Si      9.151922630000000      3.554885560000000      2.436353060000000
C      10.963342030000000      4.523522540000000      3.116267280000000
Si      9.151637030000000      5.551960400000000     -0.169689020000000
C      11.004177869999999      6.350822860000000      0.472147540000000
Si     10.943028090000000      6.125194680000000      2.414362250000000
C      12.436746010000000      7.203125800000000      2.983118960000000
36

Si     -0.130015570000000      0.031346710000000     -0.248451930000000
C       1.378212080000000      0.881054500000000      0.393362510000000
Si      1.723424490000000      0.797051220000000      2.289833900000000
C       3.057206840000000      1.913036950000000      2.929245710000000
Si      1.602569550000000      2.663278100000000      0.059517630000000
C       3.071856880000000      3.597320810000000      0.686780000000000
Si      3.025506040000000      3.562661140000000      2.585782000000000
C       4.823815630000000      4.440239140000000      3.235447040000000
Si      3.052603570000000      5.284951670000000      0.010402710000000
C       4.663490400000000      6.348000380000000      0.548633990000000
Si      4.571876990000000      6.144258980000000      2.638682900000000
C       6.057790570000000      6.951868600000000      3.146070050000000
Si      2.839247590000000     -0.008364550000000     -0.042424310000000
C       4.630528490000000      1.062252340000000      0.614644970000000
Si      4.598823800000000      1.003330820000000      2.456466680000000
C       6.127143700000000      1.641442290000000      3.113136430000000
Si      4.705115440000000      2.726107370000000      0.092791280000000
C       6.242657430000000      3.700071580000000      0.609957270000000
Si      6.339619780000000      3.517525310000000      2.530782240000000
C       7.797973180000000      4.438176330000000      3.173093800000000
Si      6.195902410000000      5.479169090000000     -0.036086980000000
C       7.729676350000000      6.356378100000000      0.662065940000000
Si      7.637252070000000      6.240285210000000      2.512222240000000
C       9.248641299999999      7.244687390000000      3.175792140000000
Si      6.208529790000000      0.048347540000000      0.214875840000000
C       7.761815940000000      0.811722470000000      0.612770720000000
Si      7.926832140000000      0.763619680000000      2.551761970000000
C       9.286208530000000      1.688076590000000      3.221071200000000
Si      7.909613280000000      2.792860630000000      0.072743600000000
C       9.352819170000000      3.583569420000000      0.705427070000000
Si      9.301238900000000      3.538639210000000      2.780724460000000
C      10.947027719999999      4.470697330000000      3.205725620000000
Si      9.330179220000000      5.468988930000000      0.080187790000000
C      10.889702509999999      6.374470010000000      0.730183320000000
Si     10.797058710000000      6.230713560000000      2.604121260000000
C      12.262574470000001      7.054597700000000      3.273950420000000
36

Si      0.059853140000000     -0.062050630000000     -0.011694600000000
C       1.520487820000000      0.857883410000000      0.598072080000000
Si      1.542229400000000      0.898080500000000      2.486927570000000
C       3.107716170000000      1.834773270000000      3.245875000000000
Si      1.569858910000000      2.696232800000000     -0.012148920000000
C       3.144949990000000      3.598249090000000      0.569579680000000
Si      3.142165250000000      3.593083820000000      2.562035040000000
C       4.580414500000000      4.535507520000000      3.213035050000000
Si      3.007701300000000      5.354049110000000     -0.124236750000000
C       4.560900740000000      6.183864790000000      0.688438950000000
Si      4.528243990000000      6.384653380000000      2.546824970000000
C       6.152612580000000      7.191090350000000      3.076305790000000
Si      3.141303100000000      0.018174760000000     -0.041896850000000
C       4.687310500000000      0.800236500000000      0.673072520000000
Si      4.724732540000000      0.784290770000000      2.608507270000000
C       6.227571260000000      1.759444590000000      3.210764650000000
Si      4.629769110000000      2.645395920000000      0.014532270000000
C       6.165871520000000      3.511619220000000      0.615815110000000
Si      6.248676140000000      3.544437150000000      2.530485400000000
C       7.770717510000000      4.566500400000000      3.236099260000000
Si      6.099948630000000      5.325734740000000      0.080083200000000
C       7.659837920000000      6.224420000000000      0.664525780000000
Si      7.811214270000000      6.271561970000000      2.470012850000000
C       9.267470370000000      7.161923760000000      3.222804210000000
Si      6.194516980000000      0.008656120000000     -0.010364300000000
C       7.821424350000000      0.888807670000000      0.567708930000000
Si      7.859853370000000      0.899647100000000      2.514518720000000
C       9.289248690000001      1.727528190000000      3.171676110000000
Si      7.761119720000000      2.601321460000000      0.023062140000000
C       9.267492280000001      3.596669250000000      0.721081680000000
Si      9.338118359999999      3.688724760000000      2.571990670000000
C      10.893407720000001      4.518000160000000      3.224907600000000
Si      9.185259139999999      5.389718540000000      0.048077270000000
C      10.780713370000001      6.285217110000000      0.714195140000000
Si     10.857230270000001      6.283181630000000      2.633663860000000
C      12.275693750000000      7.222105850000000      3.239671590000000
36

Si     -0.110450580000000     -0.146486010000000      0.029687150000000
C       1.511922700000000      0.804128800000000      0.676648310000000
Si      1.480590910000000      1.043141220000000      2.666304520000000
C       3.038989670000000      1.829047510000000      3.167801440000000
Si      1.815649300000000      2.509527290000000     -0.089842510000000
C       3.382946700000000      3.391338870000000      0.661635220000000
Si      3.357652710000000      3.716349870000000      2.621009110000000
C       4.842554990000000      4.642394100000000      3.175387530000000
Si      3.105474120000000      5.187903760000000      0.512136590000000
C       4.582092530000000      6.430205080000000      0.902018660000000
Si      4.802429730000000      6.414721020000000      2.808114700000000
C       6.177410840000000      7.182234780000000      3.370180140000000
Si      3.183688060000000      0.010383120000000      0.065498810000000
C       4.484098720000000      0.964488980000000      0.517201440000000
Si      4.488107380000000      1.041333810000000      2.327391430000000
C       6.216972980000000      1.911023700000000      2.992094120000000
Si      4.877575120000000      2.661891490000000     -0.097392460000000
C       6.125131710000000      3.804041820000000      0.408943460000000
Si      6.261289540000000      3.679056340000000      2.378211380000000
C       7.807851760000000      4.700522630000000      2.860389470000000
Si      6.076356570000000      5.493443110000000     -0.046559500000000
C       7.813777550000000      6.392247880000000      0.660702010000000
Si      7.685078460000000      6.554244790000000      2.575480950000000
C       9.273589070000000      7.264495200000000      3.277698280000000
Si      6.075597700000000     -0.036597700000000      0.046701640000000
C       7.694102000000000      0.752880810000000      0.606708360000000
Si      7.733275570000000      0.650325880000000      2.417210770000000
C       9.149883020000001      1.873055830000000      3.332596420000000
Si      7.609512430000000      2.640173950000000     -0.195290970000000
C       9.226260999999999      3.267463830000000      0.570318820000000
Si      9.223884220000000      3.613773800000000      2.478155760000000
C      10.886601690000001      4.152559180000000      3.117954150000000
Si      9.203711000000000      5.157710260000000      0.103792330000000
C      10.663287199999999      6.070086960000000      0.732582250000000
Si     10.830427640000000      6.169572240000000      2.473567520000000
C      12.300912050000001      6.948441120000000      3.192992840000000
36

Si      0.201230360000000     -0.113056560000000      0.153026820000000
C       1.766172370000000      0.665078750000000      0.627763700000000
Si      1.787924030000000      1.161813100000000      2.766616310000000
C       3.216097420000000      1.668382460000000      3.382131260000000
Si      1.555983940000000      2.558357610000000      0.109407160000000
C       3.032072140000000      3.564479290000000      0.942084100000000
Si      2.821342860000000      3.762638700000000      2.692742160000000
C       4.312226870000000      4.628423830000000      3.296204100000000
Si      3.170025860000000      5.343617810000000     -0.023490490000000
C       4.622229760000000      6.263347750000000      0.676909380000000
Si      4.715359890000000      6.342919940000000      2.738856270000000
C       6.301756790000000      7.202556230000000      3.079763290000000
Si      3.422145150000000     -0.041684250000000      0.080180910000000
C       4.769627170000000      0.925892010000000      0.715586480000000
Si      4.646219790000000      0.809738870000000      2.720763120000000
C       6.148627900000000      1.789606050000000      3.141404500000000
Si      4.647077770000000      2.558329890000000      0.104820690000000
C       6.285947860000000      3.477311910000000      0.560503820000000
Si      6.006941990000000      3.625970790000000      2.345195130000000
C       7.667927720000000      4.306181490000000      3.304202790000000
Si      6.100084290000000      5.235972400000000     -0.057929120000000
C       7.682538850000000      6.170723010000000      0.473959630000000
Si      7.675493900000000      6.097536870000000      2.274848420000000
C       9.260884610000000      7.037000190000000      3.089499440000000
Si      6.571984120000000      0.101656530000000      0.051319100000000
C       7.991690800000000      0.905120840000000      0.658847620000000
Si      7.738014790000000      0.922547130000000      2.582072870000000
C       9.355633409999999      2.044704750000000      3.124179770000000
Si      7.684473950000000      2.749934040000000     -0.097475460000000
C       9.274250450000000      3.464736970000000      0.405424730000000
Si      9.031301279999999      3.603999810000000      2.446929980000000
C      10.520276730000001      4.541324970000000      2.975296320000000
Si      9.188115740000001      5.329674480000000     -0.117108700000000
C      10.779286250000000      6.297590860000000      0.379748440000000
Si     10.725332710000000      6.405952410000000      2.396885330000000
C      12.216386930000001      7.205000440000000      3.171750200000000
36

Si      0.018942790000000     -0.033470580000000     -0.072118000000000
C       1.374865160000000      0.896105920000000      0.655700480000000
Si      1.668435170000000      0.922559910000000      2.393308920000000
C       2.942324800000000      1.873423570000000      3.166937690000000
Si      1.498990720000000      2.744762050000000     -0.027156260000000
C       3.102643450000000      3.529293040000000      0.602073600000000
Si      2.785330220000000      3.662267550000000      2.657431420000000
C       4.416165400000000      4.495921810000000      3.030755410000000
Si      3.033454720000000      5.348000560000000     -0.129884690000000
C       4.613534520000000      6.196202910000000      0.467064950000000
Si      4.593333450000000      6.302573970000000      2.217472670000000
C       6.260751750000000      7.084609890000000      2.890191230000000
Si      3.166504250000000     -0.142307250000000      0.259824890000000
C       4.796337990000000      0.899587970000000      0.676994890000000
Si      4.704126030000000      0.925562330000000      2.447253130000000
C       6.253528960000000      1.801320000000000      3.311089030000000
Si      4.667262810000000      2.723455090000000      0.219442150000000
C       6.213856540000000      3.901932160000000      0.805683670000000
Si      5.906025480000000      3.586090510000000      2.618792440000000
C       7.495547620000000      4.297821660000000      3.300888590000000
Si      6.121120200000000      5.253558530000000     -0.298182010000000
C       7.833711770000000      6.123363380000000      0.579941930000000
Si      7.823675730000000      6.029840820000000      2.471702090000000
C       9.593169270000001      7.247132970000000      2.926790170000000
Si      6.265672910000000     -0.006580020000000      0.082599400000000
C       7.990168850000000      0.872357750000000      0.756435220000000
Si      7.917910300000000      0.932026630000000      2.593162000000000
C       9.366048240000000      1.825945550000000      3.379183150000000
Si      7.549635330000000      2.761769110000000      0.262978120000000
C       9.256453499999999      3.533886070000000      0.893220190000000
Si      9.278692299999999      3.561168690000000      2.737758940000000
C      10.834907590000000      4.684106340000000      3.563069660000000
Si      9.408015270000000      5.262635440000000     -0.228750920000000
C      10.806701100000000      6.290441420000000      0.734558610000000
Si     11.040348650000000      6.357373080000000      2.635631920000000
C      12.617798430000001      7.222805050000000      3.027893800000000
36

Si     -0.025044890000000      0.004986780000000      0.022910560000000
C       1.641144320000000      0.864664830000000      0.698440290000000
Si      1.607800460000000      0.776223510000000      2.618637730000000
C       3.060958170000000      1.841671410000000      3.248403170000000
Si      1.623135730000000      2.710454900000000      0.074911230000000
C       3.085078200000000      3.554545660000000      0.651417610000000
Si      3.101211350000000      3.584317830000000      2.578261670000000
C       4.677148270000000      4.539119710000000      3.242601020000000
Si      3.091062280000000      5.377587370000000      0.053299220000000
C       4.718839320000000      6.237172090000000      0.583513450000000
Si      4.676451030000000      6.310205510000000      2.493241550000000
C       6.182029640000000      7.127583110000000      3.192709480000000
Si      3.094478460000000     -0.013038340000000      0.094522080000000
C       4.616065540000000      0.866848370000000      0.597511420000000
Si      4.592911060000000      0.956276020000000      2.572066550000000
C       6.181542330000000      1.783264290000000      3.262122160000000
Si      4.617344140000000      2.712560080000000     -0.018696920000000
C       6.110192220000000      3.707840210000000      0.573394590000000
Si      6.128298590000000      3.588998560000000      2.494769560000000
C       7.795576350000000      4.349314280000000      3.097366270000000
Si      6.249923720000000      5.448947190000000     -0.060360060000000
C       7.805800800000000      6.228569230000000      0.549479940000000
Si      7.749234240000000      6.220914240000000      2.558193980000000
C       9.233555910000000      7.141354400000000      3.168115630000000
Si      6.225723860000000     -0.043088460000000     -0.060759470000000
C       7.709740430000000      0.912414860000000      0.681428790000000
Si      7.673528470000000      0.917346870000000      2.576598150000000
C       9.382178189999999      1.606506130000000      3.177923860000000
Si      7.734586090000000      2.756588610000000     -0.004896820000000
C       9.316934300000000      3.536331760000000      0.632135680000000
Si      9.278052420000000      3.517862100000000      2.482303090000000
C      10.779761310000000      4.464393960000000      3.137961290000000
Si      9.351060430000000      5.320545960000000      0.028490000000000
C      10.826229890000000      6.210911310000000      0.686934750000000
Si     10.780925300000000      6.325693820000000      2.521684460000000
C      12.404410690000001      7.144122260000000      3.156972540000000
36

Si      0.123261970000000     -0.168901420000000      0.157377520000000
C       1.538426290000000      0.975626980000000      0.631038690000000
Si      1.500219210000000      0.883267090000000      2.690961310000000
C       3.128681100000000      1.872898120000000      3.188703360000000
Si      1.608461280000000      2.736302580000000      0.018407560000000
C       3.294902090000000      3.723688860000000      0.695422580000000
Si      3.318108210000000      3.568402850000000      2.472314920000000
C       4.761785980000000      4.407760760000000      3.208535660000000
Si      3.207656840000000      5.487338970000000     -0.008771160000000
C       4.598376950000000      6.253172510000000      0.888565950000000
Si      4.566054210000000      6.203047260000000      2.754651910000000
C       6.121429940000000      7.156941330000000      3.347611370000000
Si      2.860175980000000     -0.086098140000000     -0.140066900000000
C       4.597663960000000      0.708296530000000      0.495549030000000
Si      4.544891500000000      1.263696630000000      2.428244090000000
C       6.077619000000000      1.961284730000000      2.869002320000000
Si      4.731191880000000      2.856178600000000     -0.071848280000000
C       6.343798720000000      3.509959270000000      0.333562570000000
Si      6.446977070000000      3.704544840000000      2.362882350000000
C       7.905802360000000      4.625187890000000      3.007797050000000
Si      6.209890590000000      5.406291870000000      0.108504470000000
C       7.754376430000000      6.210580980000000      0.630387460000000
Si      7.888376260000000      6.333244270000000      2.564258460000000
C       9.102425759999999      7.569108800000000      3.413673170000000
Si      6.015065970000000     -0.097895670000000     -0.191364230000000
C       7.777276170000000      0.786670360000000      0.509729560000000
Si      7.453256740000000      0.849901290000000      2.569839200000000
C       9.087599270000000      1.683072070000000      3.165487800000000
Si      7.768605070000000      2.427144320000000     -0.038943700000000
C       9.358122650000000      3.390902460000000      0.711495920000000
Si      9.280884940000000      3.626618070000000      2.549232400000000
C      10.847350960000000      4.277283150000000      3.173554250000000
Si      9.424361650000000      5.102738680000000      0.045600450000000
C      10.750085720000000      6.033228710000000      0.834048600000000
Si     10.717072090000000      6.368239220000000      2.762163190000000
C      12.215295140000000      6.992760350000000      3.214935700000000
36

Si     -0.150776360000000      0.089928010000000     -0.047224870000000
C       1.541276500000000      0.828827470000000      0.557621890000000
Si      1.535236990000000      0.938742000000000      2.422749820000000
C       3.096171700000000      1.897142920000000      3.110425370000000
Si      1.767098770000000      2.705895420000000     -0.049111790000000
C       3.210987070000000      3.749671540000000      0.769865430000000
Si      3.184598690000000      3.768349480000000      2.623194830000000
C       4.687980590000000      4.564591840000000      3.184560030000000
Si      3.187167570000000      5.414524790000000      0.050323180000000
C       4.680293350000000      6.335639830000000      0.688969630000000
Si      4.751558690000000      6.452374250000000      2.642053340000000
C       6.353151650000000      7.213118010000000      3.389072420000000
Si      3.124963390000000     -0.083725880000000      0.028175160000000
C       4.532245810000000      0.961808900000000      0.666685600000000
Si      4.681774680000000      0.881443010000000      2.580390940000000
C       6.337320490000000      1.868115640000000      3.186390900000000
Si      4.633687550000000      2.675671240000000      0.002677600000000
C       6.187861760000000      3.373202330000000      0.572098690000000
Si      6.267270640000000      3.535129460000000      2.482361840000000
C       7.704373140000000      4.347280500000000      3.189812740000000
Si      6.083006480000000      5.106741200000000      0.062892540000000
C       7.628118980000000      6.058466920000000      0.802140850000000
Si      7.591850250000000      6.150193970000000      2.519484150000000
C       9.170306869999999      7.083028000000000      3.182312210000000
Si      6.116773170000000     -0.107322570000000     -0.054988420000000
C       7.628813680000000      1.003896420000000      0.551257840000000
Si      7.675121380000000      0.843533990000000      2.500556930000000
C       9.430062749999999      1.700611730000000      3.082613290000000
Si      7.901459100000000      2.569088940000000     -0.099256510000000
C       9.457854169999999      3.635348110000000      0.514582450000000
Si      9.371339830000000      3.695571450000000      2.589939730000000
C      10.787245170000000      4.615462210000000      3.246648750000000
Si      9.237361540000000      5.363154910000000      0.015189050000000
C      10.795963800000001      6.194266620000000      0.694320170000000
Si     10.632962210000001      6.290933430000000      2.591494110000000
C      12.199482690000000      7.114424020000000      3.333180160000000
36

Si      0.051212370000000     -0.011900470000000      0.118917740000000
C       1.670747190000000      0.949108840000000      0.725678090000000
Si      1.563536800000000      0.866283730000000      2.614125630000000
C       3.076402560000000      1.713920640000000      3.264522700000000
Si      1.548178030000000      2.671112270000000     -0.010553150000000
C       3.121614050000000      3.545350130000000      0.651445630000000
Si      3.051293260000000      3.539007500000000      2.576206630000000
C       4.631907190000000      4.471733860000000      3.203570900000000
Si      3.150405560000000      5.400337850000000      0.068296980000000
C       4.756360210000000      6.269506950000000      0.671634370000000
Si      4.716717150000000      6.249607150000000      2.538429300000000
C       6.233530620000000      7.147600050000000      3.172891840000000
Si      3.124195490000000      0.029331720000000      0.088375190000000
C       4.709315290000000      0.885864980000000      0.597689290000000
Si      4.541515980000000      0.940256560000000      2.526173630000000
C       6.033556370000000      1.813763210000000      3.203246970000000
Si      4.674320390000000      2.734853380000000     -0.095848270000000
C       6.306806740000000      3.584201660000000      0.549528140000000
Si      6.119231320000000      3.619975260000000      2.553397510000000
C       7.723673490000000      4.503467090000000      3.037196340000000
Si      6.181721050000000      5.354347080000000     -0.064947670000000
C       7.726805580000000      6.190363410000000      0.629146540000000
Si      7.753454840000000      6.292803950000000      2.504995080000000
C       9.251511470000001      7.232828080000000      3.093401580000000
Si      6.188665250000000     -0.032084540000000     -0.052278730000000
C       7.824591460000000      0.867984250000000      0.673244050000000
Si      7.606874370000000      0.866279020000000      2.531270860000000
C       9.266481730000001      1.658754490000000      3.191545820000000
Si      7.758734850000000      2.597629800000000      0.037692620000000
C       9.304916479999999      3.581813550000000      0.589870650000000
Si      9.257415419999999      3.623829500000000      2.543035690000000
C      10.813506159999999      4.449996810000000      3.191660260000000
Si      9.305243559999999      5.419925770000000     -0.021693570000000
C      10.919304150000000      6.305470630000000      0.727789900000000
Si     10.863369750000000      6.236557990000000      2.582726480000000
C      12.377353380000001      7.120808450000000      3.133630790000000
36

Si      0.088771300000000     -0.009606910000000      0.119393930000000
C       1.596420860000000      0.963928940000000      0.916519130000000
Si      1.624757620000000      0.942843100000000      2.654375570000000
C       3.294459980000000      1.781602190000000      3.269909160000000
Si      1.572005260000000      2.600116880000000      0.176849310000000
C       3.053265580000000      3.596213380000000      0.511287040000000
Si      3.363687170000000      3.439092970000000      2.506124660000000
C       4.683794920000000      4.364131810000000      3.188666970000000
Si      3.148254030000000      5.435196590000000      0.225915780000000
C       4.662807190000000      6.200991400000000      0.958768870000000
Si      4.585319790000000      6.195567560000000      2.818263310000000
C       6.327861510000000      7.364790360000000      3.324317350000000
Si      3.036246810000000      0.290744740000000     -0.053599520000000
C       4.622635640000000      1.018261120000000      0.740846970000000
Si      4.710098570000000      0.771817150000000      2.622222720000000
C       6.154989900000000      1.678646240000000      2.989032480000000
Si      4.489463890000000      2.533364670000000     -0.052684330000000
C       6.034394370000000      3.622032820000000      0.433620500000000
Si      6.349551450000000      3.498557610000000      2.301787310000000
C       7.802375060000000      4.567336580000000      3.149104410000000
Si      6.125156330000000      5.396035350000000      0.204180640000000
C       7.795172460000000      6.287270430000000      0.719919460000000
Si      7.718574440000000      6.376236340000000      2.552577570000000
C       9.299044280000000      7.210739470000000      3.428828790000000
Si      6.139048310000000      0.168313140000000     -0.116867110000000
C       7.768184430000000      1.089986810000000      0.700267270000000
Si      7.741168480000000      0.623866830000000      2.473775360000000
C       9.236158520000000      1.588710550000000      3.245410580000000
Si      7.618185420000000      2.751835610000000     -0.252296480000000
C       9.120630360000000      3.703329680000000      0.365698100000000
Si      9.324580030000000      3.497657010000000      2.302052080000000
C      10.987045840000000      4.355620000000000      2.934085940000000
Si      9.195767000000000      5.516856970000000     -0.091952050000000
C      10.664224190000001      6.206366460000000      0.640937640000000
Si     10.794115520000000      6.200343800000000      2.467277080000000
C      12.250524860000001      7.088488490000000      3.213535430000000
36

Si      0.112518100000000      0.026812060000000      0.063477830000000
C       1.539118370000000      0.935422490000000      0.499635550000000
Si      1.601418740000000      1.028994020000000      2.539759980000000
C       3.231408200000000      1.800367500000000      3.239464200000000
Si      1.545594640000000      2.701878670000000     -0.013239840000000
C       3.123875210000000      3.507884110000000      0.671471080000000
Si      3.233872730000000      3.637161470000000      2.536909570000000
C       4.578207150000000      4.677666080000000      3.103928390000000
Si      3.145950010000000      5.323725310000000     -0.051743410000000
C       4.607722570000000      6.245550330000000      0.612699040000000
Si      4.500222200000000      6.356627320000000      2.512234020000000
C       6.096056150000000      7.262003850000000      3.110704950000000
Si      2.940507140000000     -0.048815630000000     -0.097801220000000
C       4.689159640000000      0.766364820000000      0.576088720000000
Si      4.650517160000000      0.730991230000000      2.579660490000000
C       6.106270070000000      1.787587300000000      3.026574420000000
Si      4.740030340000000      2.543800740000000      0.062334210000000
C       6.266427030000000      3.450256490000000      0.725266970000000
Si      6.257781430000000      3.502281780000000      2.699960620000000
C       7.889890530000000      4.398305000000000      3.015362390000000
Si      6.147587480000000      5.223660240000000      0.036216300000000
C       7.652336600000000      6.392453320000000      0.585994490000000
Si      7.495738990000000      6.354703590000000      2.512629680000000
C       9.131623210000001      7.056045270000000      3.105410270000000
Si      6.149808200000000     -0.063313450000000     -0.035983550000000
C       7.856738730000000      0.820640650000000      0.521969000000000
Si      7.701622540000000      1.009036440000000      2.485657880000000
C       9.338989920000000      1.627370910000000      3.203576390000000
Si      7.791998630000000      2.680383460000000     -0.007145230000000
C       9.381646160000001      3.680988750000000      0.709738440000000
Si      9.452109650000001      3.525309210000000      2.640195080000000
C      11.024197120000000      4.492115610000000      3.192644950000000
Si      9.221218329999999      5.371857520000000      0.163860160000000
C      10.964956290000000      6.275712950000000      0.733273790000000
Si     10.796205420000000      6.365396180000000      2.584679840000000
C      12.202847309999999      7.414318750000000      3.268566270000000
36

Si      0.078654260000000     -0.111580800000000      0.029198290000000
C       1.459139100000000      0.910922730000000      0.613936550000000
Si      1.575074770000000      0.972459780000000      2.501140730000000
C       3.155346650000000      1.745083020000000      3.158623500000000
Si      1.529771340000000      2.678242000000000     -0.029527080000000
C       3.103812140000000      3.685233380000000      0.626586800000000
Si      3.091514730000000      3.561026060000000      2.463697150000000
C       4.629552250000000      4.409463110000000      3.127992230000000
Si      3.017439530000000      5.363693920000000     -0.053981680000000
C       4.546111220000000      6.228501040000000      0.655515240000000
Si      4.679074810000000      6.283969400000000      2.543197470000000
C       6.194352500000000      7.181920860000000      3.178602930000000
Si      3.070095640000000      0.042509700000000     -0.069371870000000
C       4.683091970000000      0.896014950000000      0.708601240000000
Si      4.633546000000000      0.762170780000000      2.570941090000000
C       6.135933600000000      1.733817000000000      3.129165980000000
Si      4.681947560000000      2.708261570000000      0.049476920000000
C       6.246655880000000      3.601800700000000      0.712219360000000
Si      6.229986570000000      3.527834860000000      2.642967930000000
C       7.730503980000000      4.607404310000000      3.219550660000000
Si      6.172559030000000      5.365789210000000      0.035351050000000
C       7.683975790000000      6.291162560000000      0.717139760000000
Si      7.682156100000000      6.322512580000000      2.481617840000000
C       9.266084220000000      7.108379850000000      3.210667300000000
Si      6.180898730000000     -0.068683740000000      0.006352610000000
C       7.802778870000000      0.816748610000000      0.613249900000000
Si      7.861061290000000      0.888962640000000      2.584662960000000
C       9.307507160000000      1.917359860000000      3.111041840000000
Si      7.729940050000000      2.648673140000000      0.069981560000000
C       9.292569869999999      3.624140000000000      0.644516480000000
Si      9.341766350000000      3.634714230000000      2.494282730000000
C      10.864700640000001      4.494251880000000      3.197070950000000
Si      9.222969770000001      5.371211800000000     -0.005466190000000
C      10.793184460000001      6.249976140000000      0.635090160000000
Si     10.858880180000000      6.276110430000000      2.643552080000000
C      12.429261350000001      7.188515830000000      3.235768900000000
36

Si      0.071243630000000      0.030197550000000     -0.030872350000000
C       1.738296390000000      0.924608230000000      0.585563750000000
Si      1.563335010000000      0.958786690000000      2.561614090000000
C       3.119680130000000      1.739755700000000      3.092795050000000
Si      1.493076700000000      2.800963420000000      0.106237650000000
C       3.168466690000000      3.627787150000000      0.768699850000000
Si      3.278422750000000      3.536676910000000      2.637384920000000
C       4.716161390000000      4.576270610000000      3.278474170000000
Si      2.935131630000000      5.421452110000000      0.019171340000000
C       4.571892770000000      6.137444290000000      0.620688400000000
Si      4.558190140000000      6.333443500000000      2.451746450000000
C       6.016233810000000      7.142088600000000      3.150986750000000
Si      3.076985850000000      0.021282900000000     -0.206567580000000
C       4.682133530000000      0.841285680000000      0.508158190000000
Si      4.476144190000000      0.680673060000000      2.414553340000000
C       6.032515190000000      1.631812410000000      3.015646300000000
Si      4.705329460000000      2.716459290000000      0.186795800000000
C       6.134396370000000      3.690978980000000      0.732011410000000
Si      6.225154880000000      3.491538210000000      2.522624690000000
C       7.754869370000000      4.249427940000000      3.351134290000000
Si      6.047682570000000      5.429989530000000     -0.025646450000000
C       7.703132230000000      6.120871750000000      0.640571410000000
Si      7.680052580000000      6.079678690000000      2.593097510000000
C       9.208370220000001      7.027187300000000      3.132994360000000
Si      6.327959330000000      0.047891340000000     -0.086602920000000
C       7.870949630000000      0.970698160000000      0.612889440000000
Si      7.704771030000000      0.811708290000000      2.534658380000000
C       9.339108070000000      1.807951050000000      3.000987700000000
Si      7.963686000000000      2.720235610000000      0.108439470000000
C       9.277226519999999      3.717581690000000      0.769907570000000
Si      9.426191640000001      3.663889960000000      2.691639340000000
C      10.939631380000000      4.471362540000000      3.180327550000000
Si      9.137313519999999      5.461344740000000     -0.015907370000000
C      10.799848050000000      6.357873120000000      0.522412760000000
Si     10.928080780000000      6.280357370000000      2.685531700000000
C      12.341873750000000      7.050808210000000      3.087221570000000
36

Si     -0.018568170000000     -0.064291130000000     -0.039403340000000
C       1.562550700000000      0.891202230000000      0.611023890000000
Si      1.567170920000000      0.877144390000000      2.462873940000000
C       3.095176690000000      1.825941020000000      3.095105070000000
Si      1.469554630000000      2.717102600000000     -0.012305460000000
C       3.135735420000000      3.499284590000000      0.655770800000000
Si      3.216970410000000      3.557544350000000      2.552843110000000
C       4.605254750000000      4.544852130000000      3.153123200000000
Si      3.035484350000000      5.415218340000000      0.080574550000000
C       4.655180580000000      6.229053400000000      0.638491270000000
Si      4.660831050000000      6.304203870000000      2.466431630000000
C       6.089251130000000      7.262239960000000      3.253436260000000
Si      3.087596570000000     -0.074158210000000      0.057999010000000
C       4.648658600000000      0.904496180000000      0.638073550000000
Si      4.748448880000000      0.827259310000000      2.487255450000000
C       6.241340190000000      1.736808830000000      3.200025900000000
Si      4.672243860000000      2.649903570000000     -0.015708570000000
C       6.216034830000000      3.540326580000000      0.608696330000000
Si      6.178214510000000      3.502555150000000      2.528302200000000
C       7.724466960000000      4.565769970000000      3.219267750000000
Si      6.229802040000000      5.365002040000000     -0.021159160000000
C       7.641945310000000      6.231101970000000      0.718006050000000
Si      7.658121230000000      6.341420950000000      2.597315530000000
C       9.239980250000000      7.187457640000000      3.201900080000000
Si      6.302487190000000     -0.025352880000000      0.028307850000000
C       7.809253760000000      0.927273290000000      0.670625310000000
Si      7.842840560000000      0.918087290000000      2.588763420000000
C       9.307030989999999      1.782320890000000      3.256638990000000
Si      7.827226830000000      2.632050370000000      0.049275500000000
C       9.200978400000000      3.649970800000000      0.783294580000000
Si      9.305077590000000      3.721840100000000      2.591868090000000
C      10.903910730000000      4.499981200000000      3.174158110000000
Si      9.171706260000001      5.370736720000000     -0.007988620000000
C      10.809954560000000      6.256239770000000      0.694664560000000
Si     10.759856270000000      6.194457880000000      2.488333160000000
C      12.256104600000000      7.149717910000000      3.097231500000000
36

Si     -0.048266740000000      0.104790800000000     -0.071253160000000
C       1.626119130000000      0.864624880000000      0.478689560000000
Si      1.623048120000000      0.998927140000000      2.462745140000000
C       3.244952630000000      1.878783510000000      3.065567640000000
Si      1.691856420000000      2.702094150000000     -0.057377450000000
C       3.190733270000000      3.530389350000000      0.636414430000000
Si      3.095516970000000      3.745294660000000      2.468125740000000
C       4.843046340000000      4.642923380000000      3.098050060000000
Si      3.117073480000000      5.358368400000000      0.105598070000000
C       4.702599800000000      6.167152240000000      0.594340210000000
Si      4.693567830000000      6.263456850000000      2.683080700000000
C       6.011198970000000      7.244650550000000      3.338787020000000
Si      3.137794740000000     -0.107016940000000      0.039706550000000
C       4.631029050000000      0.736160280000000      0.607030240000000
Si      4.509196470000000      0.891046060000000      2.510487140000000
C       6.162823510000000      1.744386700000000      3.219041340000000
Si      4.549851760000000      2.753386160000000     -0.102200680000000
C       6.219147800000000      3.502925580000000      0.727353680000000
Si      6.319477700000000      3.430038740000000      2.580329550000000
C       7.763715300000000      4.377019060000000      3.097895890000000
Si      6.196121900000000      5.367536760000000      0.150126260000000
C       7.684950080000000      6.204724550000000      0.896503760000000
Si      7.496876450000000      6.106833060000000      2.676905410000000
C       9.105025330000000      7.081055360000000      3.281707800000000
Si      6.186864300000000     -0.076349290000000      0.004868050000000
C       7.687549580000000      0.877745910000000      0.634007150000000
Si      7.804353180000000      0.871326940000000      2.567231880000000
C       9.363641980000001      1.801835670000000      3.200949740000000
Si      7.842002240000000      2.697477570000000      0.119083730000000
C       9.325858730000000      3.584771190000000      0.617077860000000
Si      9.481175960000000      3.554366200000000      2.439114640000000
C      10.972988150000001      4.586558050000000      3.183654860000000
Si      9.219706290000000      5.323705250000000     -0.083614950000000
C      10.821362669999999      6.246754020000000      0.569782680000000
Si     10.610939970000000      6.431291460000000      2.509892990000000
C      12.225454030000000      7.177003950000000      3.143785430000000
36

Si     -0.057262580000000      0.024346790000000      0.000287820000000
C       1.576020130000000      0.859287550000000      0.526759780000000
Si      1.429766350000000      0.854405630000000      2.527013070000000
C       3.154671190000000      1.843135690000000      3.117982820000000
Si      1.543573880000000      2.775631560000000     -0.037065750000000
C       3.212069080000000      3.679215950000000      0.531351210000000
Si      3.256431950000000      3.705764680000000      2.374747310000000
C       4.629763600000000      4.579940950000000      3.139082600000000
Si      3.188107140000000      5.514102010000000      0.101986500000000
C       4.776515760000000      6.347329110000000      0.792195080000000
Si      4.739896470000000      6.316046310000000      2.610891220000000
C       6.218390310000000      7.173359260000000      3.260563220000000
Si      3.238060570000000     -0.142850610000000     -0.019109110000000
C       4.552936000000000      0.815394410000000      0.634979510000000
Si      4.608683900000000      0.844293650000000      2.559918300000000
C       6.393475300000000      1.819654330000000      3.201778270000000
Si      4.732067190000000      2.703778120000000     -0.009932370000000
C       6.265344030000000      3.502180760000000      0.732650420000000
Si      6.281448790000000      3.436790970000000      2.560594660000000
C       7.861988970000000      4.341898760000000      3.180410400000000
Si      6.000379350000000      5.264598850000000     -0.038572780000000
C       7.510642430000000      6.130184030000000      0.583557870000000
Si      7.588141920000000      6.086464470000000      2.533530330000000
C       9.085841300000000      7.046727110000000      3.300637280000000
Si      6.031591570000000     -0.005689850000000     -0.055152300000000
C       7.583102320000000      0.914514600000000      0.671921110000000
Si      7.701591200000000      0.788686640000000      2.387829370000000
C       9.440049269999999      1.907545090000000      3.199952680000000
Si      7.835027490000000      2.714844980000000      0.063014560000000
C       9.364329330000000      3.613745220000000      0.619398920000000
Si      9.492039610000001      3.562332050000000      2.510427100000000
C      10.855771730000001      4.515015480000000      3.180934890000000
Si      9.263539650000000      5.383134720000000      0.045834080000000
C      10.874499419999999      6.349494080000000      0.840246930000000
Si     10.637317650000000      6.418747620000000      2.698365980000000
C      12.265964540000001      7.211033650000000      3.316404550000000
36

Si     -0.023466790000000      0.001574240000000     -0.087302440000000
C       1.466707640000000      0.860316040000000      0.589889390000000
Si      1.441204160000000      0.803375340000000      2.452402130000000
C       3.170361830000000      1.630182480000000      3.132126320000000
Si      1.355504690000000      2.654651880000000      0.037925730000000
C       3.002222090000000      3.522025830000000      0.542447740000000
Si      3.172458730000000      3.415672540000000      2.525328780000000
C       4.552891470000000      4.229524190000000      3.392131810000000
Si      3.173108770000000      5.320457270000000     -0.037618850000000
C       4.671354280000000      6.261784240000000      0.599573470000000
Si      4.706520330000000      6.096154040000000      2.427951520000000
C       6.280210540000000      6.975255930000000      3.197793050000000
Si      3.303595460000000      0.156219170000000      0.025979870000000
C       4.645922540000000      1.112093180000000      0.869941570000000
Si      4.720901730000000      0.983717860000000      2.615604640000000
C       6.283843560000000      1.848681490000000      3.207729860000000
Si      4.668971560000000      2.885180420000000     -0.132336280000000
C       6.031501620000000      3.668978190000000      0.715356680000000
Si      6.139387560000000      3.519362910000000      2.582582860000000
C       7.608843610000000      4.355479950000000      3.128278420000000
Si      6.224412480000000      5.372572310000000     -0.061350540000000
C       7.742727840000000      6.347002320000000      0.688855780000000
Si      7.926985730000000      6.198340780000000      2.451189150000000
C       9.475032040000000      7.255069350000000      3.151605740000000
Si      6.196278490000000      0.065054000000000      0.173270260000000
C       7.863116570000000      0.946963830000000      0.771871620000000
Si      7.742876000000000      0.850018220000000      2.607892650000000
C       9.273046340000000      1.788341830000000      3.233252620000000
Si      7.662898070000000      2.720266370000000      0.051927930000000
C       9.171983100000000      3.805094480000000      0.678867170000000
Si      9.243994810000000      3.547957630000000      2.516331340000000
C      10.630982720000000      4.510368240000000      3.200362340000000
Si      9.104505270000001      5.392328890000000     -0.056204980000000
C      11.034054950000000      6.272561710000000      0.687081730000000
Si     10.909806010000000      6.281787070000000      2.671962870000000
C      12.343515020000000      7.214891260000000      3.158386490000000
36

Si     -0.037216640000000      0.066091430000000     -0.045289010000000
C       1.604073680000000      0.895888690000000      0.635798650000000
Si      1.519961270000000      0.818519920000000      2.484210810000000
C       3.115460590000000      1.716067650000000      3.110449620000000
Si      1.537549360000000      2.592586220000000     -0.029918950000000
C       3.008540530000000      3.516505620000000      0.639438260000000
Si      3.065079870000000      3.665430700000000      2.567075000000000
C       4.685276340000000      4.477273480000000      3.159205160000000
Si      3.009031720000000      5.346940110000000     -0.040671180000000
C       4.580935430000000      6.336064440000000      0.592099940000000
Si      4.599586700000000      6.306096410000000      2.419344430000000
C       6.308469460000000      7.111235840000000      3.128824910000000
Si      3.108218880000000     -0.084175590000000      0.083153360000000
C       4.658460940000000      0.845697110000000      0.595281070000000
Si      4.670185360000000      0.935433820000000      2.458349890000000
C       6.288952170000000      1.825935990000000      3.226750730000000
Si      4.635420910000000      2.690883320000000      0.045815540000000
C       6.220987650000000      3.515084100000000      0.702498110000000
Si      6.275054670000000      3.587639830000000      2.555454480000000
C       7.801067130000000      4.416371530000000      3.221185140000000
Si      6.143451410000000      5.360915190000000      0.055087890000000
C       7.726557670000000      6.158069780000000      0.670064440000000
Si      7.858487070000000      6.218376860000000      2.637865800000000
C       9.322022860000001      7.233315840000000      3.162327150000000
Si      6.123180870000000      0.033029740000000     -0.049950220000000
C       7.630709290000000      0.877654270000000      0.617080060000000
Si      7.733459930000000      0.868435630000000      2.544155380000000
C       9.303615040000000      1.760083910000000      3.130326320000000
Si      7.681872390000000      2.674571240000000      0.084990730000000
C       9.408118180000001      3.618177030000000      0.555321990000000
Si      9.364401420000000      3.584821450000000      2.545680880000000
C      10.803871520000000      4.510723060000000      3.290290170000000
Si      9.308513540000000      5.364037420000000      0.090082160000000
C      10.829727660000000      6.336518450000000      0.702472890000000
Si     10.888546600000000      6.331244120000000      2.588917530000000
C      12.384428600000000      7.229032560000000      3.271089020000000
36

Si      0.226966840000000     -0.043825460000000      0.350330160000000
C       1.825049300000000      0.935747910000000      0.890513990000000
Si      1.625505910000000      1.007878570000000      2.581958440000000
C       3.225077420000000      2.027627830000000      3.448017970000000
Si      1.777019450000000      2.417668360000000     -0.029725280000000
C       3.211510270000000      3.496159470000000      0.509901240000000
Si      3.046363930000000      3.706496240000000      2.770081430000000
C       4.765645240000000      4.476365750000000      3.232452950000000
Si      3.204973020000000      5.430744670000000      0.064487990000000
C       4.659243220000000      6.049114550000000      1.085869950000000
Si      4.565441360000000      6.323114940000000      2.857447110000000
C       6.185531590000000      7.295950700000000      3.323798350000000
Si      3.202105290000000      0.034513570000000     -0.150483230000000
C       4.794832720000000      0.831237370000000      0.639816750000000
Si      4.652551560000000      0.921841930000000      2.472592540000000
C       6.203034030000000      1.906366950000000      3.199578260000000
Si      4.641118430000000      2.708987270000000     -0.107488150000000
C       6.180245630000000      3.495720120000000      0.556601630000000
Si      6.106220570000000      3.517147580000000      2.459907370000000
C       7.373958520000000      4.615320800000000      3.002785240000000
Si      6.184766700000000      5.281636060000000      0.151345240000000
C       7.663108770000000      6.258522830000000      0.680238800000000
Si      7.609484900000000      6.299757630000000      2.687537890000000
C       9.236956859999999      7.176609730000000      3.296182880000000
Si      6.137204560000000     -0.030549050000000     -0.034693070000000
C       7.776750110000000      0.855365250000000      0.643817920000000
Si      7.846583560000000      0.995387630000000      2.498234990000000
C       9.339241260000000      1.842945680000000      3.016136850000000
Si      7.754174960000000      2.398378520000000     -0.295057580000000
C       9.206261039999999      3.498729240000000      0.432280190000000
Si      9.092068630000000      3.834825530000000      2.227719590000000
C      10.662959369999999      4.570403000000000      3.013709470000000
Si      9.060747420000000      5.227292810000000     -0.104925960000000
C      10.716319629999999      6.147186970000000      0.679441440000000
Si     10.868284989999999      6.199774410000000      2.452433600000000
C      12.382442169999999      7.203853890000000      3.092923660000000
36

Si      0.084076770000000      0.068820630000000     -0.072445280000000
C       1.569172900000000      0.968955070000000      0.586768500000000
Si      1.833750070000000      0.812046690000000      2.530126200000000
C       3.254467460000000      1.619140370000000      3.223575330000000
Si      1.445589750000000      2.705444700000000     -0.109273520000000
C       2.804196110000000      3.600037330000000      0.687163660000000
Si      3.010080650000000      3.486536960000000      2.536194860000000
C       4.510917390000000      4.442715540000000      3.079233090000000
Si      2.949052100000000      5.413576230000000     -0.106852970000000
C       4.592738800000000      6.348053690000000      0.385856710000000
Si      4.837452770000000      6.176333730000000      2.365974610000000
C       6.068403810000000      7.187869090000000      3.178356790000000
Si      3.077780100000000      0.195146630000000      0.126018910000000
C       4.557215690000000      0.897516330000000      0.931298680000000
Si      4.837639650000000      0.591130950000000      2.602964480000000
C       6.303970640000000      1.738723700000000      3.301569300000000
Si      4.568166510000000      2.682426580000000      0.230460470000000
C       6.166134900000000      3.641483290000000      0.629010990000000
Si      5.959103760000000      3.536242900000000      2.596201960000000
C       7.729797880000000      4.489466140000000      3.232339610000000
Si      6.264579440000000      5.466581320000000     -0.104177110000000
C       7.504955920000000      6.385685290000000      0.430329350000000
Si      7.789704550000000      6.163466860000000      2.497101460000000
C       9.376611170000000      6.887697720000000      3.062104470000000
Si      6.029943380000000      0.148226210000000     -0.064832150000000
C       7.649291280000000      0.841281880000000      0.567909810000000
Si      7.910906470000000      0.826465790000000      2.726098460000000
C       9.368333910000000      1.859420400000000      3.124878060000000
Si      7.569278250000000      2.791153880000000      0.288875820000000
C       9.324714699999999      3.719002200000000      0.896691810000000
Si      9.261876270000000      3.645226910000000      2.733956180000000
C      10.920721690000001      4.722688280000000      3.440086570000000
Si      9.198129209999999      5.216688370000000     -0.139634740000000
C      10.712784790000001      6.367950830000000      0.419899910000000
Si     11.101430089999999      6.247437650000000      2.374952340000000
C      12.696871040000000      7.101439600000000      3.192848420000000
36

Si     -0.020076260000000     -0.050773350000000      0.046061670000000
C       1.479190390000000      0.976377530000000      0.714540340000000
Si      1.482848800000000      0.990350280000000      2.588506640000000
C       3.082212120000000      1.700802470000000      3.240796300000000
Si      1.543521290000000      2.720545100000000      0.077712150000000
C       3.108286820000000      3.551026920000000      0.705298650000000
Si      3.093205770000000      3.498912150000000      2.554902070000000
C       4.624521240000000      4.475453640000000      3.147408770000000
Si      3.120122530000000      5.330515800000000      0.094449620000000
C       4.700755580000000      6.294599780000000      0.733460620000000
Si      4.766814840000000      6.247178870000000      2.581145640000000
C       6.299337930000000      7.194882900000000      3.206838500000000
Si      3.034796100000000      0.069787260000000      0.023757740000000
C       4.629111640000000      0.843779100000000      0.614013610000000
Si      4.763915530000000      0.845709680000000      2.463987070000000
C       6.193643830000000      1.830266800000000      3.139210380000000
Si      4.641639730000000      2.687067500000000     -0.040340050000000
C       6.130558270000000      3.569004060000000      0.538635630000000
Si      6.222598350000000      3.623206530000000      2.463831770000000
C       7.738140890000000      4.502387450000000      3.160952010000000
Si      6.211564880000000      5.315355380000000     -0.021128860000000
C       7.691789040000000      6.251685370000000      0.646000780000000
Si      7.832318340000000      6.275151520000000      2.525091370000000
C       9.358762130000001      7.183178800000000      3.049806500000000
Si      6.204360580000000      0.041934200000000      0.029468280000000
C       7.743165670000000      0.932313040000000      0.714204090000000
Si      7.675210990000000      0.879372910000000      2.640785270000000
C       9.183192869999999      1.831840900000000      3.219308390000000
Si      7.669045370000000      2.607700040000000      0.064288220000000
C       9.263643810000000      3.635609760000000      0.521849140000000
Si      9.322002970000000      3.598698240000000      2.445289300000000
C      10.771245459999999      4.342035120000000      3.213926220000000
Si      9.233910990000000      5.346892470000000     -0.065898640000000
C      10.758098589999999      6.251449330000000      0.651245000000000
Si     10.933478239999999      6.269871580000000      2.496103610000000
C      12.349238580000000      7.161259490000000      3.254603690000000
36

Si     -0.060851760000000      0.031967260000000     -0.113767370000000
C       1.459512190000000      0.883342360000000      0.594106530000000
Si      1.470293050000000      0.921268850000000      2.458164920000000
C       3.021837790000000      1.791585520000000      3.113081020000000
Si      1.546143540000000      2.707849410000000      0.006472960000000
C       3.141321120000000      3.571190720000000      0.576741610000000
Si      3.062257920000000      3.512525670000000      2.474428000000000
C       4.542893350000000      4.360023760000000      3.196002900000000
Si      3.148992900000000      5.345487450000000      0.098078290000000
C       4.742929430000000      6.213245150000000      0.675696740000000
Si      4.719609020000000      6.206462450000000      2.502101820000000
C       6.134881080000000      7.213602900000000      3.257967330000000
Si      3.109298700000000      0.014074650000000      0.010038610000000
C       4.684680980000000      0.877774050000000      0.613845820000000
Si      4.623886000000000      0.886358890000000      2.484905880000000
C       6.093664250000000      1.790918180000000      3.247858460000000
Si      4.671570980000000      2.741583000000000      0.007469070000000
C       6.213714660000000      3.579049360000000      0.645040170000000
Si      6.226145090000000      3.542369680000000      2.552507400000000
C       7.713136760000000      4.494793150000000      3.241522070000000
Si      6.333554580000000      5.383561260000000      0.032578560000000
C       7.822074690000000      6.239277200000000      0.748516860000000
Si      7.675530180000000      6.242538460000000      2.677365520000000
C       9.307135830000000      7.201574690000000      3.159787220000000
Si      6.205376380000000      0.013903340000000      0.030596790000000
C       7.733022820000000      0.973304440000000      0.599951810000000
Si      7.717016090000000      0.905165940000000      2.610346080000000
C       9.218709049999999      1.678801100000000      3.207240690000000
Si      7.781981660000000      2.715651190000000      0.048846020000000
C       9.333696350000000      3.629823260000000      0.689226550000000
Si      9.253325930000001      3.571162570000000      2.562774210000000
C      10.810164800000001      4.461035960000000      3.210057120000000
Si      9.356529589999999      5.382459860000000     -0.028527840000000
C      10.893486469999999      6.304264750000000      0.656997390000000
Si     10.846699310000000      6.226459190000000      2.508304550000000
C      12.340731720000001      7.139543110000000      3.144452750000000
36

Si     -0.044462330000000      0.089297810000000      0.055731530000000
C       1.491600790000000      1.053675240000000      0.650038570000000
Si      1.733818240000000      0.903734190000000      2.531370920000000
C       3.267063070000000      1.856093950000000      3.282525780000000
Si      1.660853570000000      2.699492760000000     -0.051723260000000
C       3.135878070000000      3.576855900000000      0.685545850000000
Si      3.099515030000000      3.539468510000000      2.612345190000000
C       4.675126720000000      4.596459030000000      3.133733940000000
Si      3.106396500000000      5.467653360000000      0.112161630000000
C       4.762613930000000      6.378837200000000      0.794810750000000
Si      4.645532000000000      6.531199160000000      2.592095200000000
C       6.081018800000000      7.365055160000000      3.204336820000000
Si      3.110466900000000     -0.076815720000000      0.147285020000000
C       4.645150960000000      0.735440120000000      0.735203880000000
Si      4.717425760000000      0.929576190000000      2.643455050000000
C       6.261649530000000      1.700069920000000      3.071918710000000
Si      4.538429580000000      2.760569470000000      0.056355960000000
C       6.189104460000000      3.496682870000000      0.575039030000000
Si      6.220385130000000      3.515884040000000      2.508398680000000
C       7.684508210000000      4.472606340000000      3.217950250000000
Si      6.062005620000000      5.260957050000000      0.041671690000000
C       7.574161720000000      6.264198380000000      0.621930840000000
Si      7.622112940000000      6.174139950000000      2.707227790000000
C       9.223301060000001      7.127164850000000      3.159364860000000
Si      6.059379980000000      0.022667450000000     -0.117479840000000
C       7.590766510000000      0.770716580000000      0.460089400000000
Si      7.777431020000000      0.770558520000000      2.464810610000000
C       9.178377140000000      1.701845500000000      3.124211190000000
Si      7.956442750000000      2.643362070000000     -0.096894820000000
C       9.433278590000000      3.585801420000000      0.700498710000000
Si      9.369151130000001      3.546475380000000      2.455762740000000
C      10.850277739999999      4.423410180000000      3.085722070000000
Si      9.336962430000000      5.345331950000000     -0.006453490000000
C      10.877690899999999      6.162257450000000      0.632915720000000
Si     10.769438740000000      6.195621900000000      2.433256400000000
C      12.159929630000001      7.210045780000000      3.052474740000000
36

Si     -0.444226390000000     -0.001207740000000     -0.171779390000000
C       1.276325010000000      0.875515670000000      0.392438160000000
Si      1.378401540000000      0.912770060000000      2.304043170000000
C       2.848758220000000      1.616282120000000      3.130945810000000
Si      1.786479740000000      2.737211070000000     -0.058720360000000
C       3.282318680000000      3.657399220000000      0.564374670000000
Si      3.115015340000000      3.389808240000000      2.421715260000000
C       4.776980120000000      4.279297050000000      3.177442560000000
Si      3.146659070000000      5.459896500000000      0.101855570000000
C       4.732506780000000      6.497751160000000      0.709496550000000
Si      4.823732490000000      6.178783000000000      2.567755550000000
C       6.411579400000000      7.044314210000000      3.171686150000000
Si      2.894711430000000      0.113223140000000     -0.157759250000000
C       4.642924880000000      1.198820230000000      0.609070130000000
Si      4.613799880000000      0.813328610000000      2.533394240000000
C       6.160900290000000      1.566854780000000      3.206584090000000
Si      4.850699130000000      3.054375730000000     -0.108279140000000
C       6.201330120000000      3.778344270000000      0.669495200000000
Si      6.236238250000000      3.598599380000000      2.535059910000000
C       8.031571280000000      4.488860460000000      3.327876400000000
Si      6.101895520000000      5.571597430000000      0.184420440000000
C       7.804573640000000      6.165344180000000      0.692244750000000
Si      7.788842370000000      6.225611730000000      2.714143550000000
C       9.476467359999999      7.027040400000000      3.264036450000000
Si      5.889258410000000      0.039015490000000      0.056726050000000
C       7.298294290000000      0.822641790000000      0.679816100000000
Si      7.732211870000000      0.784153840000000      2.558978350000000
C       9.249496170000000      1.740435640000000      3.127908170000000
Si      7.870113420000000      2.569135230000000      0.115492380000000
C       9.550397459999999      3.511905100000000      0.810523830000000
Si      9.342366750000000      3.548400170000000      2.484867390000000
C      11.061530500000000      4.513024770000000      3.183269270000000
Si      9.255950459999999      5.335737670000000      0.195688530000000
C      10.879718230000000      6.247720410000000      0.736791770000000
Si     10.860751810000000      6.258838010000000      2.486096100000000
C      12.561203870000000      6.814077440000000      3.495850260000000
36

Si     -0.024435360000000     -0.010260580000000     -0.063156120000000
C       1.674715890000000      0.912029170000000      0.563070390000000
Si      1.596551570000000      0.970981190000000      2.455030540000000
C       3.063965740000000      1.842932180000000      3.162570530000000
Si      1.565737450000000      2.697990140000000     -0.087269810000000
C       3.037283810000000      3.574369980000000      0.631865450000000
Si      3.050394100000000      3.598630410000000      2.503617090000000
C       4.636435060000000      4.504440960000000      3.187498830000000
Si      3.019065630000000      5.367412170000000     -0.001703660000000
C       4.645813910000000      6.167238510000000      0.648286400000000
Si      4.612873290000000      6.253070560000000      2.539401800000000
C       6.100515610000000      7.220404730000000      3.081092300000000
Si      3.193418200000000     -0.007858600000000     -0.033926220000000
C       4.714375270000000      0.843198100000000      0.622257670000000
Si      4.716005560000000      0.882960310000000      2.549560780000000
C       6.231376290000000      1.750594250000000      3.241313500000000
Si      4.681142970000000      2.715206060000000      0.086444520000000
C       6.179210040000000      3.573155130000000      0.717403670000000
Si      6.236637780000000      3.581613760000000      2.615075300000000
C       7.794072990000000      4.375446830000000      3.241188920000000
Si      6.113945230000000      5.319653250000000      0.028624270000000
C       7.807395190000000      6.276470310000000      0.632717880000000
Si      7.667408320000000      6.106335190000000      2.548285560000000
C       9.164361520000000      7.155532180000000      3.279115770000000
Si      6.190539540000000     -0.010425970000000     -0.052703480000000
C       7.735177680000000      0.910817080000000      0.623014250000000
Si      7.762172950000000      0.897630160000000      2.552070390000000
C       9.333385930000000      1.799922140000000      3.129641260000000
Si      7.748752810000000      2.700650960000000      0.109861730000000
C       9.328567749999999      3.519021310000000      0.673175750000000
Si      9.354822520000001      3.563419260000000      2.525328400000000
C      10.826508570000000      4.581009720000000      3.250203210000000
Si      9.351478170000000      5.350054220000000      0.044615500000000
C      10.733868180000000      6.291469680000000      0.691920970000000
Si     10.787278519999999      6.329306140000000      2.608072030000000
C      12.349210440000000      7.209106710000000      3.191128280000000
36

Si      0.045567520000000      0.000030350000000      0.056708750000000
C       1.698261260000000      0.948290060000000      0.640986790000000
Si      1.633673600000000      0.880795130000000      2.547750140000000
C       3.196952110000000      1.829925760000000      3.061056150000000
Si      1.649653090000000      2.675423340000000      0.002366030000000
C       3.229286540000000      3.663675540000000      0.517302050000000
Si      3.180605490000000      3.659995210000000      2.400892260000000
C       4.670590990000000      4.426445420000000      3.132386710000000
Si      3.170743350000000      5.484372990000000     -0.007830340000000
C       4.647096330000000      6.191744720000000      0.691303350000000
Si      4.543178080000000      6.229312250000000      2.654446460000000
C       6.079611690000000      7.184022210000000      3.124067310000000
Si      3.095616940000000     -0.068851790000000     -0.127230200000000
C       4.591187650000000      0.775087130000000      0.605800230000000
Si      4.587391420000000      0.740719200000000      2.434362660000000
C       6.202313010000000      1.765418790000000      3.150485120000000
Si      4.600529280000000      2.684632370000000      0.056024480000000
C       6.208926910000000      3.564467140000000      0.729457880000000
Si      6.212330700000000      3.703209500000000      2.613020050000000
C       7.607337320000000      4.465049190000000      3.329968160000000
Si      6.120076740000000      5.270553970000000      0.067108660000000
C       7.666576170000000      6.031491440000000      0.601906950000000
Si      7.545492360000000      6.201238400000000      2.546501790000000
C       9.030924969999999      7.045332340000000      3.139021100000000
Si      6.122029960000000      0.049120270000000     -0.033620930000000
C       7.582777600000000      0.937620280000000      0.521701380000000
Si      7.717859930000000      0.903990410000000      2.482475280000000
C       9.302134160000000      1.865805990000000      3.014669770000000
Si      7.933631590000000      2.683722520000000      0.159533050000000
C       9.416215060000001      3.520283720000000      0.686084730000000
Si      9.430550110000000      3.663500820000000      2.698325720000000
C      10.882415630000001      4.671216580000000      3.280641920000000
Si      9.435387660000000      5.395577160000000      0.040859870000000
C      10.831912750000001      6.348196680000000      0.620122950000000
Si     10.628982629999999      6.199921430000000      2.541580170000000
C      12.442713220000000      7.154077780000000      3.238703760000000
36

Si     -0.009131580000000      0.033322340000000      0.061408350000000
C       1.408042800000000      1.102206080000000      0.732895270000000
Si      1.590710700000000      0.797602000000000      2.683365610000000
C       3.095172550000000      1.665537990000000      3.227752180000000
Si      1.542869470000000      2.735965640000000     -0.051619260000000
C       3.076105820000000      3.383133530000000      0.600010150000000
Si      2.809618510000000      3.456704140000000      2.451830520000000
C       4.319444620000000      4.476788900000000      3.109621540000000
Si      3.113770610000000      5.374768650000000      0.090031930000000
C       4.602947720000000      6.274962640000000      0.622899040000000
Si      4.696324780000000      6.194506770000000      2.549991140000000
C       6.297079140000000      7.099716080000000      3.143301960000000
Si      3.127216810000000      0.061777470000000      0.144004220000000
C       4.789630440000000      0.856916810000000      0.740183710000000
Si      4.763938840000000      0.909465960000000      2.601380410000000
C       6.323061720000000      2.010858760000000      3.220760120000000
Si      4.681547440000000      2.678424060000000      0.044175760000000
C       6.198870170000000      3.525425850000000      0.506962840000000
Si      6.165029410000000      3.693571400000000      2.392853470000000
C       7.643320350000000      4.663825330000000      3.033298170000000
Si      6.267368990000000      5.241484190000000     -0.046515490000000
C       7.857501020000000      6.409713750000000      0.602138480000000
Si      7.913235270000000      6.343308700000000      2.718768420000000
C       9.495024200000000      7.043590050000000      3.174159710000000
Si      6.157666900000000     -0.021002400000000      0.002386340000000
C       7.785368820000000      0.917984580000000      0.640947410000000
Si      7.689994840000000      0.933482190000000      2.586947480000000
C       9.087149360000000      1.722140650000000      3.197744950000000
Si      7.725694210000000      2.734905470000000      0.028745040000000
C       9.307247340000000      3.632218550000000      0.533203020000000
Si      9.143499130000000      3.561936920000000      2.506202290000000
C      10.724280540000001      4.336818180000000      3.245662540000000
Si      9.327991989999999      5.365190270000000     -0.075652430000000
C      10.915543509999999      6.323739420000000      0.607163490000000
Si     10.948161700000000      6.143650520000000      2.440550460000000
C      12.356281239999999      7.218960570000000      3.157296220000000
36

Si     -0.145516400000000     -0.108913640000000     -0.075178520000000
C       1.580454170000000      0.750819650000000      0.631386280000000
Si      1.556841260000000      0.931124560000000      2.313128070000000
C       3.117694310000000      1.800389130000000      3.211805340000000
Si      1.584756870000000      2.499015960000000      0.059432650000000
C       3.005411960000000      3.572344340000000      0.816836110000000
Si      3.235629130000000      3.691277030000000      2.679964580000000
C       4.728591790000000      4.384493970000000      3.183298120000000
Si      3.195582850000000      5.326987220000000     -0.011436430000000
C       4.713392760000000      6.152514080000000      0.540714340000000
Si      4.527580010000000      6.275729500000000      2.530921950000000
C       6.061688100000000      7.068704300000000      3.101790020000000
Si      3.138553070000000      0.068347010000000     -0.066707390000000
C       4.533209560000000      0.939829580000000      0.544810820000000
Si      4.592148450000000      0.951552450000000      2.434541110000000
C       6.121789210000000      1.739561260000000      2.988084640000000
Si      4.397581430000000      2.857199530000000     -0.049790740000000
C       6.214342740000000      3.612974240000000      0.680674580000000
Si      6.236493500000000      3.669956560000000      2.628187670000000
C       7.676055850000000      4.591272860000000      3.293931430000000
Si      6.455783860000000      5.472357530000000      0.087361420000000
C       7.865814420000000      6.184736730000000      0.486128940000000
Si      7.650277600000000      6.209172610000000      2.490356260000000
C       9.249324970000000      7.219691630000000      3.137378920000000
Si      6.189889800000000     -0.006557330000000      0.023335070000000
C       7.651062960000000      0.721879110000000      0.710872670000000
Si      7.744063860000000      0.882569660000000      2.597398940000000
C       9.189030700000000      1.720128950000000      3.143853480000000
Si      7.698664570000000      2.746042950000000      0.175525990000000
C       9.345087410000000      3.451290830000000      0.732085700000000
Si      9.371604870000001      3.596414290000000      2.650061880000000
C      10.957332470000001      4.515509190000000      3.250057310000000
Si      9.403620030000001      5.254654970000000      0.007789130000000
C      10.939046870000000      6.249609670000000      0.578382570000000
Si     10.801026029999999      6.301998030000000      2.605785090000000
C      12.381675619999999      7.100545120000000      3.176563840000000
36

Si     -0.023518470000000      0.096828090000000      0.056844570000000
C       1.610523000000000      0.845971510000000      0.602830850000000
Si      1.504541510000000      0.797295660000000      2.515781090000000
C       2.955021990000000      1.716790790000000      3.178661650000000
Si      1.440866380000000      2.729577640000000     -0.046796160000000
C       2.955310400000000      3.534128740000000      0.551070580000000
Si      2.941757600000000      3.458699190000000      2.519399930000000
C       4.531287070000000      4.216993850000000      3.250084810000000
Si      3.148853080000000      5.200608710000000     -0.060739320000000
C       4.758038010000000      6.150842090000000      0.809849850000000
Si      4.839443320000000      6.113747630000000      2.571876200000000
C       6.323078310000000      7.072202880000000      3.070483820000000
Si      3.219492250000000      0.178874810000000      0.042024460000000
C       4.746009320000000      1.118731920000000      0.758139510000000
Si      4.652449890000000      0.918068710000000      2.531177270000000
C       6.155653860000000      1.889860540000000      3.303892960000000
Si      4.553311970000000      2.754881730000000      0.108892900000000
C       5.991923410000000      3.682440230000000      0.763432300000000
Si      6.152291980000000      3.780674320000000      2.548067070000000
C       7.705463600000000      4.452795580000000      3.181304600000000
Si      6.157796020000000      5.415662720000000     -0.193584120000000
C       7.823901150000000      6.338618100000000      0.573619250000000
Si      7.856731910000000      6.370882880000000      2.404381520000000
C       9.363310289999999      7.182710600000000      3.062404820000000
Si      6.202170120000000     -0.053786320000000     -0.014060500000000
C       7.702071450000000      0.831160170000000      0.829908230000000
Si      7.660786570000000      0.863754840000000      2.604693040000000
C       9.291333450000000      1.759403200000000      3.220852010000000
Si      7.762365380000000      2.634760140000000      0.060147600000000
C       9.193183579999999      3.659011130000000      0.660541390000000
Si      9.264538999999999      3.572258730000000      2.539219610000000
C      10.823417340000001      4.532491060000000      3.315203800000000
Si      9.235778600000000      5.413183530000000      0.043364780000000
C      10.798045560000000      6.225633840000000      0.635987190000000
Si     11.016710700000001      6.177998940000000      2.513439080000000
C      12.716171149999999      7.022379160000000      3.227341970000000
36

Si     -0.097495850000000      0.046854720000000     -0.039327860000000
C       1.535275280000000      0.829988730000000      0.554037150000000
Si      1.428704050000000      0.819302530000000      2.482049870000000
C       3.033440040000000      1.774937880000000      3.179356010000000
Si      1.535182440000000      2.632351710000000     -0.010925950000000
C       3.118993790000000      3.493565390000000      0.622060920000000
Si      3.065020350000000      3.583345140000000      2.560122230000000
C       4.709872430000000      4.519341570000000      3.144633830000000
Si      3.091804860000000      5.375774770000000     -0.067852840000000
C       4.655244490000000      6.291233290000000      0.597828890000000
Si      4.726932860000000      6.258320630000000      2.497739820000000
C       6.216364590000000      7.151307810000000      3.143369550000000
Si      3.045657530000000     -0.012434690000000      0.033902680000000
C       4.601876350000000      0.903704060000000      0.582603980000000
Si      4.585180660000000      0.834857660000000      2.504842310000000
C       6.229793420000000      1.744404230000000      3.223400390000000
Si      4.661375040000000      2.692803900000000     -0.000598880000000
C       6.228784920000000      3.583802350000000      0.703632630000000
Si      6.247098380000000      3.528775110000000      2.646765580000000
C       7.789802380000000      4.472484150000000      3.128263370000000
Si      6.260532670000000      5.436667640000000      0.093350660000000
C       7.830859560000000      6.330865660000000      0.745746650000000
Si      7.862271580000000      6.329341440000000      2.537287150000000
C       9.351991959999999      7.155434680000000      3.266501490000000
Si      6.155205540000000     -0.024286620000000      0.041472540000000
C       7.664380620000000      0.829776750000000      0.604355490000000
Si      7.694095520000000      0.857290440000000      2.513117820000000
C       9.301302700000001      1.830191020000000      3.121710400000000
Si      7.678607930000000      2.698303830000000      0.077759400000000
C       9.236832830000001      3.612029320000000      0.583571350000000
Si      9.302687329999999      3.572942740000000      2.468368440000000
C      10.887038100000000      4.533211010000000      3.235503500000000
Si      9.305233890000000      5.431844400000000      0.048470610000000
C      10.865267960000001      6.227147230000000      0.658958870000000
Si     10.875770250000000      6.270602800000000      2.654199160000000
C      12.566604260000000      7.162260710000000      3.206498860000000
36

Si     -0.078403290000000     -0.074799170000000      0.011783810000000
C       1.555934570000000      0.801998330000000      0.694157060000000
Si      1.585780770000000      0.816306490000000      2.529161030000000
C       3.133967300000000      1.827989000000000      3.144413770000000
Si      1.384420530000000      2.654674070000000     -0.010499500000000
C       2.973795910000000      3.524749380000000      0.643176130000000
Si      3.056902330000000      3.535794230000000      2.587587990000000
C       4.605750020000000      4.604237890000000      3.339312030000000
Si      3.131651550000000      5.195759440000000     -0.058528990000000
C       4.772924260000000      6.118887640000000      0.648006780000000
Si      4.576221110000000      6.279558340000000      2.534179110000000
C       6.217839270000000      7.047905630000000      3.221972810000000
Si      3.101883520000000      0.080582530000000     -0.122717660000000
C       4.479068840000000      0.997219650000000      0.325039860000000
Si      4.660494620000000      0.990829120000000      2.439109800000000
C       6.118269900000000      1.787127560000000      3.011400740000000
Si      4.650883940000000      2.805191790000000      0.028552760000000
C       6.066410480000000      3.685051320000000      0.783268870000000
Si      6.316443290000000      3.720199130000000      2.653585870000000
C       7.832213380000000      4.509855270000000      3.354560870000000
Si      6.212625430000000      5.350831820000000      0.010758880000000
C       7.886998010000000      6.259462280000000      0.645058500000000
Si      7.845046920000000      6.309350310000000      2.434574230000000
C       9.390080070000000      7.172575950000000      3.200506110000000
Si      6.022839780000000     -0.166655110000000     -0.117609150000000
C       7.634204250000000      0.954579730000000      0.655500590000000
Si      7.806527780000000      0.856599890000000      2.382294330000000
C       9.261763830000000      1.764410060000000      3.170549460000000
Si      7.661517660000000      2.655116340000000      0.079570710000000
C       9.168513650000000      3.598320260000000      0.862184810000000
Si      9.324223010000001      3.654224990000000      2.677499710000000
C      10.808096070000000      4.469402490000000      3.283715210000000
Si      9.414943559999999      5.358546640000000      0.124422840000000
C      11.064953720000000      6.302490290000000      0.758650940000000
Si     10.956675080000000      6.266799710000000      2.558441640000000
C      12.369349220000000      7.121718700000000      3.258721900000000
36

Si     -0.002526760000000     -0.106910480000000     -0.115944740000000
C       1.522444640000000      0.907137150000000      0.667974080000000
Si      1.541640390000000      0.989802670000000      2.561012650000000
C       3.212110790000000      1.813115040000000      3.202923040000000
Si      1.498203240000000      2.575163000000000      0.011555080000000
C       3.064846930000000      3.377182880000000      0.599618280000000
Si      2.912296050000000      3.543554700000000      2.524462410000000
C       4.416408190000000      4.398001950000000      3.282948760000000
Si      3.201786650000000      5.160335380000000      0.052715860000000
C       4.789538530000000      6.138107290000000      0.679811130000000
Si      4.736649860000000      6.265196520000000      2.525934390000000
C       6.240184300000000      7.133008420000000      3.230054730000000
Si      3.041044260000000      0.112412070000000      0.056803520000000
C       4.565756050000000      0.808700100000000      0.705010170000000
Si      4.795536950000000      1.163745410000000      2.744421000000000
C       6.405263210000000      1.980262710000000      3.285077610000000
Si      4.562981680000000      2.685712800000000      0.067036470000000
C       6.243480690000000      3.554283590000000      0.679054460000000
Si      6.166249740000000      3.622155640000000      2.536542150000000
C       7.533897600000000      4.551605420000000      3.256324050000000
Si      6.352573410000000      5.376172010000000     -0.114586170000000
C       7.817654740000000      6.310506820000000      0.528502340000000
Si      7.755005240000000      6.328420190000000      2.544394810000000
C       9.401432260000000      7.241002750000000      3.127204280000000
Si      6.177645300000000     -0.016973330000000      0.070878470000000
C       7.771140220000000      0.961248670000000      0.805094750000000
Si      7.764012450000000      0.854394080000000      2.616673920000000
C       9.480912620000000      1.845876430000000      3.183536670000000
Si      7.611274970000000      2.677270880000000     -0.136184900000000
C       9.193177290000000      3.559145960000000      0.658915120000000
Si      9.220017540000001      3.467240130000000      2.530518170000000
C      10.703805510000000      4.547201570000000      3.124078390000000
Si      9.305280079999999      5.333290470000000      0.006130520000000
C      11.058991649999999      6.123358410000000      0.647124870000000
Si     10.805241460000000      6.345811850000000      2.380246810000000
C      12.353464720000000      7.092737200000000      3.055310000000000
36

Si      0.036168410000000     -0.055877060000000     -0.073399910000000
C       1.545051480000000      0.960682460000000      0.560177770000000
Si      1.509008630000000      0.913781130000000      2.408313130000000
C       3.047875290000000      1.693110890000000      3.171249330000000
Si      1.503637600000000      2.685493740000000      0.004196350000000
C       3.082362690000000      3.577194460000000      0.622370480000000
Si      3.087283640000000      3.554169890000000      2.478997390000000
C       4.609052650000000      4.500138530000000      3.122086770000000
Si      3.127474530000000      5.399737230000000     -0.050941780000000
C       4.598271440000000      6.326414570000000      0.700558020000000
Si      4.611605250000000      6.269322400000000      2.509975610000000
C       6.194895190000000      7.171232250000000      3.125162240000000
Si      3.152574400000000      0.053958620000000     -0.032260760000000
C       4.691910720000000      0.892159240000000      0.723853870000000
Si      4.628079100000000      0.782462330000000      2.599491730000000
C       6.181750040000000      1.781814310000000      3.137821310000000
Si      4.724837780000000      2.702734960000000      0.113937500000000
C       6.238322730000000      3.591825620000000      0.699307980000000
Si      6.181037400000000      3.574083140000000      2.612157280000000
C       7.713787800000000      4.513542540000000      3.256443270000000
Si      6.189461070000000      5.362899350000000      0.069161550000000
C       7.751729240000000      6.214294520000000      0.703705080000000
Si      7.668790020000000      6.238459750000000      2.520668040000000
C       9.115445060000001      7.128092820000000      3.268416580000000
Si      6.185604150000000     -0.050631740000000     -0.003094590000000
C       7.804648040000000      0.873204690000000      0.636536220000000
Si      7.786735200000000      0.901755180000000      2.512040360000000
C       9.298235139999999      1.751849840000000      3.132218590000000
Si      7.823254490000000      2.711470790000000      0.035520680000000
C       9.350764249999999      3.690678990000000      0.618874290000000
Si      9.329745930000000      3.568500380000000      2.572339650000000
C      10.773807900000000      4.450576030000000      3.229055820000000
Si      9.339220770000001      5.399389480000000      0.067555030000000
C      10.933396020000000      6.234528590000000      0.691480700000000
Si     10.780282760000000      6.288731670000000      2.549521780000000
C      12.329035440000000      7.169678750000000      3.245427050000000
36

Si      0.166746930000000     -0.200327620000000      0.095827300000000
C       1.675331660000000      0.761543620000000      0.726515140000000
Si      1.528025710000000      0.939579480000000      2.769387510000000
C       3.015088480000000      1.885794700000000      3.285291970000000
Si      1.686449390000000      2.413100370000000     -0.082322060000000
C       3.188794560000000      3.483837280000000      0.513954400000000
Si      3.221950200000000      3.819604460000000      2.649449050000000
C       4.804833260000000      4.485606770000000      3.087372950000000
Si      3.066004520000000      5.180611130000000      0.120472220000000
C       4.584785450000000      6.196138610000000      0.856225850000000
Si      4.483084930000000      6.498859260000000      2.824739730000000
C       6.115411350000000      7.256504950000000      3.418855330000000
Si      3.294116340000000     -0.043190520000000     -0.081239380000000
C       4.898828420000000      0.910650830000000      0.909413870000000
Si      4.384588010000000      1.082268940000000      2.562757670000000
C       6.007727200000000      2.029570250000000      3.127522200000000
Si      4.689758420000000      2.462833750000000     -0.079779360000000
C       6.417026450000000      3.481187850000000      0.661819090000000
Si      6.280366550000000      3.597749820000000      2.408066170000000
C       7.781084580000000      4.548744500000000      2.961454580000000
Si      6.218788890000000      5.323100170000000      0.078420570000000
C       7.737030450000000      6.314120810000000      0.800000840000000
Si      7.650722480000000      6.508835460000000      2.584136760000000
C       9.091545800000000      7.545378930000000      3.342487960000000
Si      6.227207950000000      0.019741970000000     -0.122048380000000
C       7.789602160000000      0.737080310000000      0.611304880000000
Si      7.615061270000000      0.754984510000000      2.578942150000000
C       9.100251439999999      1.524428610000000      3.160920640000000
Si      7.778521090000000      2.525748070000000     -0.222434660000000
C       9.371840730000001      3.545471870000000      0.355011260000000
Si      9.271514150000000      3.685892690000000      2.073284730000000
C      10.887278080000000      4.374596430000000      3.020842930000000
Si      9.386192290000000      5.484481050000000     -0.019398950000000
C      10.873067000000001      6.360647450000000      0.721274000000000
Si     10.594224740000000      6.222986920000000      2.627608620000000
C      12.204866190000001      7.134855920000000      3.384505110000000
36

Si      0.118559960000000      0.223521900000000      0.130245990000000
C       1.839192490000000      0.982429130000000      0.713635010000000
Si      1.861536130000000      0.774181520000000      2.621661220000000
C       3.190487300000000      1.769043550000000      3.335095390000000
Si      1.355959750000000      2.684283400000000     -0.092040540000000
C       3.067203890000000      3.721859000000000      0.513287090000000
Si      2.872339900000000      3.625609420000000      2.645426600000000
C       4.451340690000000      4.451664850000000      2.994993360000000
Si      3.023215250000000      5.368778370000000     -0.164303990000000
C       4.609088850000000      6.423588920000000      0.299909100000000
Si      4.528181830000000      6.136881520000000      2.466167680000000
C       6.094479390000000      6.925420720000000      3.156312920000000
Si      3.188146360000000     -0.032792710000000      0.093200740000000
C       4.583412680000000      1.145075250000000      0.584882780000000
Si      4.829671100000000      0.727163870000000      2.647727800000000
C       6.400175250000000      1.737388730000000      3.295598420000000
Si      4.578657100000000      2.673141350000000     -0.035424240000000
C       5.974791040000000      3.434832710000000      0.729258770000000
Si      6.093115070000000      3.548893060000000      2.630789690000000
C       7.766184420000000      4.288553520000000      3.018887830000000
Si      6.075954970000000      5.143519410000000     -0.075816830000000
C       7.657586940000000      6.365783280000000      0.742885140000000
Si      7.767649180000000      6.116402800000000      2.557949750000000
C       9.307982300000001      6.965703800000000      3.230040510000000
Si      6.143830030000000      0.102466030000000     -0.018322720000000
C       7.792641040000000      1.025952450000000      0.823189770000000
Si      8.032347460000000      0.972562480000000      2.578395250000000
C       9.669185130000001      1.847180930000000      3.208213360000000
Si      7.658502600000000      2.740437020000000      0.077261140000000
C       9.162205350000001      3.632330430000000      0.566594670000000
Si      9.391356130000000      3.512069010000000      2.484607260000000
C      10.824481810000000      4.613949940000000      3.294861390000000
Si      9.114353890000000      5.577476070000000      0.045146930000000
C      10.624656240000000      6.400916920000000      0.553714270000000
Si     10.882097030000001      6.222157590000000      2.444227280000000
C      12.594420800000000      7.218868020000000      3.249661330000000
36

Si      0.109231200000000     -0.049595060000000      0.234024930000000
C       1.603936500000000      0.669604620000000      0.860091430000000
Si      1.773384460000000      1.057185060000000      2.583489800000000
C       3.293242790000000      1.899647820000000      3.319779820000000
Si      1.833392760000000      2.444354670000000      0.056730470000000
C       3.264979800000000      3.470277570000000      0.782014990000000
Si      3.116124950000000      3.646965520000000      2.582498030000000
C       4.644417020000000      4.503967880000000      3.274085180000000
Si      3.150228910000000      5.527550190000000      0.144621090000000
C       4.615111810000000      6.145594340000000      0.947445930000000
Si      4.723883290000000      6.315235060000000      2.805223340000000
C       6.202920710000000      7.394049390000000      3.474712810000000
Si      3.251236420000000      0.028273480000000      0.200678480000000
C       4.829214470000000      0.868057210000000      0.541353460000000
Si      4.759917070000000      0.917631500000000      2.386829660000000
C       6.247675770000000      1.886270710000000      3.339333790000000
Si      4.699494760000000      2.711500600000000     -0.033625550000000
C       6.306550370000000      3.450632140000000      0.429205790000000
Si      5.977727610000000      3.618391000000000      2.293944570000000
C       7.388141280000000      4.671922190000000      3.100122420000000
Si      5.994400120000000      5.396597290000000     -0.016856740000000
C       7.415368020000000      6.284166910000000      0.681821070000000
Si      7.534679970000000      6.248530130000000      2.580539070000000
C       9.003388599999999      7.273037410000000      3.099142400000000
Si      6.314912390000000     -0.200968410000000     -0.170622910000000
C       7.797873070000000      1.030574830000000      0.602368150000000
Si      7.875688750000000      1.046215760000000      2.723685410000000
C       9.454121900000001      1.967002810000000      3.165617760000000
Si      7.603020210000000      2.432288480000000     -0.170475430000000
C       9.304527450000000      3.303428600000000      0.367053730000000
Si      9.079107010000000      3.648255730000000      2.368564330000000
C      10.575580710000001      4.468836180000000      3.120824170000000
Si      9.275688010000000      5.205228190000000     -0.250151940000000
C      10.661343740000000      6.080412210000000      0.692940320000000
Si     10.752293500000000      6.266293150000000      2.509316680000000
C      12.278728070000000      7.248258890000000      3.000613220000000
36

Si     -0.036963460000000      0.049478460000000      0.134232220000000
C       1.540988400000000      0.904169990000000      0.766502030000000
Si      1.610809860000000      0.885020330000000      2.573043780000000
C       3.008206590000000      1.813378300000000      3.195860660000000
Si      1.535372610000000      2.680542190000000      0.051327650000000
C       3.073580760000000      3.615904040000000      0.659704820000000
Si      3.177124130000000      3.615468740000000      2.551500450000000
C       4.671087910000000      4.410940160000000      3.253790190000000
Si      3.059947920000000      5.315394680000000      0.030197110000000
C       4.583690160000000      6.260545890000000      0.683412950000000
Si      4.803360240000000      6.113699590000000      2.550548410000000
C       6.263102450000000      7.119796440000000      3.151677520000000
Si      3.083085380000000      0.035523140000000     -0.003775830000000
C       4.599525390000000      0.920964690000000      0.620015650000000
Si      4.579695110000000      1.007074700000000      2.521873880000000
C       6.107337290000000      1.776533260000000      3.137166080000000
Si      4.618605430000000      2.688384500000000     -0.084723660000000
C       6.087678050000000      3.655540640000000      0.616182810000000
Si      6.184099340000000      3.582447120000000      2.518438030000000
C       7.759846260000000      4.526042160000000      3.117091330000000
Si      6.073887630000000      5.409489750000000      0.021229150000000
C       7.676884380000000      6.273244550000000      0.590591350000000
Si      7.866312680000000      6.308354930000000      2.476906830000000
C       9.296339870000001      7.227619710000000      3.182775510000000
Si      6.160373650000000     -0.050693590000000      0.006919970000000
C       7.657654510000000      0.955345930000000      0.628112340000000
Si      7.760491380000000      0.912656840000000      2.524983220000000
C       9.281492500000001      1.754861910000000      3.258418900000000
Si      7.663254180000000      2.652815810000000     -0.089135650000000
C       9.264347890000000      3.487799680000000      0.639558970000000
Si      9.331488920000000      3.558320230000000      2.532830050000000
C      10.848837079999999      4.410357240000000      3.163930840000000
Si      9.358987580000001      5.312540200000000      0.039265970000000
C      10.889441769999999      6.263340670000000      0.743808670000000
Si     10.926718080000001      6.248942270000000      2.569876610000000
C      12.435526760000000      7.086132340000000      3.162817190000000
36

Si      0.133383300000000      0.082097860000000      0.183369150000000
C       1.760207700000000      0.749368940000000      0.884109560000000
Si      1.712366440000000      0.991248290000000      2.699532850000000
C       3.402638970000000      1.729881340000000      3.401561760000000
Si      1.419687960000000      2.699029800000000      0.250513340000000
C       3.022127580000000      3.506805960000000      0.598028560000000
Si      3.050118680000000      3.463551930000000      2.606309590000000
C       4.524347140000000      4.355136840000000      3.238549690000000
Si      3.168941130000000      5.605002560000000      0.131117550000000
C       4.651748380000000      6.349703930000000      0.799623390000000
Si      4.609040700000000      6.209138820000000      2.625207620000000
C       6.375595850000000      7.202039000000000      3.266354730000000
Si      3.045151170000000     -0.177245150000000      0.033807180000000
C       4.834794380000000      0.724023750000000      0.691735540000000
Si      4.891729450000000      0.967631630000000      2.624285310000000
C       6.351265280000000      1.794455100000000      3.171780890000000
Si      4.379615920000000      2.630419080000000     -0.059572470000000
C       5.836014260000000      3.732652820000000      0.411459840000000
Si      6.255796210000000      3.516605800000000      2.509509950000000
C       7.750773070000000      4.377857280000000      3.288346180000000
Si      6.039619000000000      5.398195770000000     -0.072234540000000
C       7.741635270000000      6.083267370000000      0.644087420000000
Si      7.762803910000000      6.229925060000000      2.686617680000000
C       9.475084590000000      7.217742380000000      3.255948300000000
Si      6.457286970000000     -0.083846610000000      0.072726000000000
C       7.774259940000000      1.124682670000000      0.745897020000000
Si      7.853435970000000      0.915828200000000      2.430124130000000
C       9.233609769999999      1.835939790000000      3.210737430000000
Si      7.418195940000000      2.794248680000000     -0.225071770000000
C       9.114424630000000      3.619484420000000      0.512278850000000
Si      9.324966659999999      3.536242710000000      2.294602410000000
C      10.814457859999999      4.658732390000000      3.105496660000000
Si      9.213295870000000      5.333965510000000     -0.193739900000000
C      10.794401929999999      6.037078660000000      0.556081590000000
Si     10.736467299999999      6.277302420000000      2.204817340000000
C      12.254012050000000      7.214287720000000      3.078395380000000
36

Si     -0.181100320000000      0.040837320000000     -0.097168400000000
C       1.505884380000000      0.756401640000000      0.646808590000000
Si      1.412098510000000      0.933006960000000      2.497957570000000
C       2.864265420000000      1.825920870000000      3.118493220000000
Si      1.544353910000000      2.591962660000000      0.093328440000000
C       3.077197040000000      3.576851880000000      0.478011200000000
Si      3.357740690000000      3.613849770000000      2.455339470000000
C       4.906319270000000      4.459583490000000      3.134862320000000
Si      3.202801290000000      5.387753510000000      0.009783230000000
C       4.591067580000000      6.358860980000000      0.761083850000000
Si      4.691839830000000      6.133508030000000      2.609438200000000
C       6.107156450000000      7.184364070000000      3.148003860000000
Si      3.051812150000000     -0.108034740000000     -0.100797660000000
C       4.323555600000000      1.035231720000000      0.565428050000000
Si      4.410083150000000      0.988643150000000      2.292994070000000
C       6.115512230000000      1.901524100000000      3.010502180000000
Si      4.606886530000000      2.688358130000000      0.071064190000000
C       6.208443450000000      3.585928340000000      0.719159340000000
Si      6.489607730000000      3.919752470000000      2.372363030000000
C       7.952818870000000      4.677588830000000      3.275102190000000
Si      6.180133910000000      5.365346020000000      0.162936720000000
C       7.952671120000000      6.283511890000000      0.715607230000000
Si      7.857316750000000      6.529936180000000      2.576319870000000
C       9.414763430000001      7.379881000000000      3.284461770000000
Si      6.044081160000000     -0.162299530000000      0.188005140000000
C       7.484244980000000      0.548068210000000      0.752340200000000
Si      7.521710330000000      0.660955560000000      2.430871700000000
C       9.096467100000000      1.738399380000000      2.993207060000000
Si      7.807996120000000      2.666817100000000     -0.027341770000000
C       9.218341819999999      3.561332980000000      0.718971720000000
Si      9.462027330000000      3.516283630000000      2.673700180000000
C      11.119996250000000      4.295437760000000      3.224529100000000
Si      9.394635270000000      5.286814490000000      0.051939970000000
C      10.957370230000000      6.140037100000000      0.716085190000000
Si     10.753838370000000      6.289197260000000      2.647100580000000
C      12.497405890000000      7.113308700000000      3.350157500000000
36

Si      0.043140850000000     -0.022797330000000      0.140285320000000
C       1.603439740000000      0.799723520000000      0.763959330000000
Si      1.549466040000000      0.851072940000000      2.673098440000000
C       3.011616390000000      1.846555900000000      3.167812960000000
Si      1.409336640000000      2.716785540000000     -0.112507560000000
C       3.034232860000000      3.588826800000000      0.569782490000000
Si      2.878963100000000      3.628657580000000      2.483558060000000
C       4.706810090000000      4.326776100000000      3.111617230000000
Si      3.274941480000000      5.330121550000000      0.120531630000000
C       4.792887250000000      6.194892870000000      0.721568270000000
Si      4.724964760000000      6.289785220000000      2.626572250000000
C       6.306696860000000      7.084940540000000      3.153227380000000
Si      3.203602530000000      0.110062620000000      0.173714370000000
C       4.875389770000000      1.083356310000000      0.698146660000000
Si      4.768720280000000      0.914298200000000      2.715571050000000
C       6.199752450000000      1.702718310000000      3.384235290000000
Si      4.612166030000000      2.664326510000000      0.000145100000000
C       5.978845080000000      3.566136590000000      0.666226950000000
Si      6.210448620000000      3.692935320000000      2.548764740000000
C       7.714436760000000      4.413963310000000      3.113094320000000
Si      6.264145740000000      5.324403400000000     -0.036882590000000
C       7.849143490000000      6.256513990000000      0.566300410000000
Si      7.754536090000000      6.293539440000000      2.317237160000000
C       9.389792150000000      7.104972600000000      3.155013420000000
Si      6.130940530000000     -0.022432350000000     -0.095893550000000
C       7.649412070000000      0.825220580000000      0.617355210000000
Si      7.707482860000000      0.991507370000000      2.597100040000000
C       9.134152739999999      1.819711380000000      3.201196240000000
Si      7.609680270000000      2.534700140000000     -0.010547050000000
C       9.146899030000000      3.615515350000000      0.586929870000000
Si      9.215361059999999      3.558019350000000      2.451629460000000
C      10.793438119999999      4.488363690000000      3.213371380000000
Si      9.325905250000000      5.423010550000000     -0.046441720000000
C      10.858286209999999      6.207129750000000      0.594387270000000
Si     10.879829070000000      6.251778280000000      2.450021620000000
C      12.451677210000000      7.059448530000000      3.122532290000000
36

Si     -0.090183670000000     -0.080552350000000     -0.130358730000000
C       1.587735760000000      0.703403410000000      0.460757860000000
Si      1.467155020000000      0.912558010000000      2.397404260000000
C       3.107128930000000      1.897769290000000      2.925033820000000
Si      1.618585800000000      2.716786880000000      0.072479500000000
C       3.102956950000000      3.705810710000000      0.589995900000000
Si      3.228590800000000      3.666314850000000      2.715044300000000
C       4.833627880000000      4.585231530000000      3.295618850000000
Si      2.924257280000000      5.339774500000000      0.021235300000000
C       4.697776450000000      6.141440740000000      0.613921640000000
Si      4.681484060000000      6.285083390000000      2.580449530000000
C       6.149550130000000      7.169797210000000      3.253156160000000
Si      3.150526450000000      0.073610790000000     -0.065177270000000
C       4.607600740000000      1.041366140000000      0.453311650000000
Si      4.506770610000000      0.825615090000000      2.470174080000000
C       6.008818730000000      1.629940130000000      2.947608550000000
Si      4.669815860000000      2.782869920000000      0.004532600000000
C       6.027234690000000      3.679635490000000      0.763030630000000
Si      6.282507090000000      3.499112810000000      2.694524260000000
C       7.863871400000000      4.289908790000000      3.109384210000000
Si      6.152968690000000      5.304213010000000      0.015180600000000
C       7.729159170000000      6.132443630000000      0.634676240000000
Si      7.758732960000000      6.271993050000000      2.457733360000000
C       9.211614810000000      7.162921210000000      3.152532600000000
Si      6.194675470000000     -0.029608500000000      0.050277810000000
C       7.746039790000000      0.987570790000000      0.627086400000000
Si      7.786497200000000      0.847190750000000      2.485522360000000
C       9.459810689999999      1.774287870000000      3.269938690000000
Si      7.595057960000000      2.771602840000000      0.138825310000000
C       9.342415640000000      3.540906140000000      0.817859820000000
Si      9.444204259999999      3.612901870000000      2.629279540000000
C      10.893023430000000      4.634222510000000      3.212826060000000
Si      9.290337180000000      5.179997230000000      0.043494920000000
C      10.880006310000001      6.238120330000000      0.764587150000000
Si     10.857535759999999      6.359234020000000      2.544808200000000
C      12.351685529999999      7.116786490000000      3.212681720000000
36

Si     -0.029301210000000     -0.038090030000000     -0.112466160000000
C       1.541673790000000      0.866721490000000      0.582113030000000
Si      1.546590270000000      0.847708230000000      2.485653220000000
C       3.122530450000000      1.717918690000000      3.113045880000000
Si      1.532793120000000      2.749348670000000      0.003952430000000
C       3.013784330000000      3.633003210000000      0.685074940000000
Si      3.144679550000000      3.503550970000000      2.510945120000000
C       4.667135710000000      4.533608780000000      3.155587170000000
Si      3.024456690000000      5.480407240000000      0.053212510000000
C       4.620984610000000      6.287659380000000      0.581692040000000
Si      4.639192870000000      6.244199300000000      2.473592280000000
C       6.079429740000000      7.154681830000000      3.196668160000000
Si      3.047440540000000     -0.029755680000000      0.089552480000000
C       4.602168670000000      0.873566380000000      0.607106390000000
Si      4.726174380000000      0.901096730000000      2.523243160000000
C       6.248054250000000      1.753567380000000      3.242381300000000
Si      4.626567230000000      2.588292730000000     -0.030259330000000
C       6.172739600000000      3.580279570000000      0.623790480000000
Si      6.256689710000000      3.611781590000000      2.522477590000000
C       7.767080780000000      4.514342440000000      3.178763210000000
Si      6.285910270000000      5.288120740000000      0.003032890000000
C       7.730084460000000      6.285030470000000      0.719563740000000
Si      7.691575860000000      6.328930070000000      2.619383100000000
C       9.297800710000001      7.078541590000000      3.224524030000000
Si      6.302503790000000      0.020114470000000      0.006987740000000
C       7.793120180000000      0.867443020000000      0.673362960000000
Si      7.723583400000000      0.829134270000000      2.553183140000000
C       9.307872720000001      1.854983240000000      3.160826360000000
Si      7.821155410000000      2.724915850000000      0.016648410000000
C       9.285851989999999      3.663225600000000      0.718533570000000
Si      9.246498519999999      3.589646580000000      2.639278110000000
C      10.866556900000001      4.414949490000000      3.202008590000000
Si      9.267044230000000      5.399797130000000      0.037650520000000
C      10.750313510000000      6.357815100000000      0.585178090000000
Si     10.819389910000000      6.224890410000000      2.543554800000000
C      12.374116860000001      7.168683740000000      3.288265420000000
36

Si     -0.019256200000000      0.241786720000000     -0.294326890000000
C       1.547809710000000      0.841097440000000      0.502650530000000
Si      1.348862940000000      0.780822950000000      2.354478960000000
C       2.866865460000000      1.610900720000000      2.900237020000000
Si      1.584900450000000      2.598956080000000     -0.040095660000000
C       3.137024180000000      3.493924760000000      0.547360960000000
Si      2.883067180000000      3.459597660000000      2.609382400000000
C       4.615168680000000      4.410346600000000      3.178447570000000
Si      3.269911940000000      5.250976440000000     -0.142628530000000
C       4.748997200000000      6.056965230000000      0.475026180000000
Si      4.486726970000000      6.167255570000000      2.427028310000000
C       5.912687690000000      7.088294580000000      3.027404300000000
Si      3.066408220000000     -0.063082480000000      0.210992190000000
C       4.612513070000000      0.831129780000000      0.618652750000000
Si      4.483395150000000      0.976057090000000      2.333112330000000
C       6.218567780000000      1.860816480000000      3.495320480000000
Si      4.742162990000000      2.624594330000000      0.205497550000000
C       6.278217510000000      3.605501890000000      0.947253470000000
Si      6.180264830000000      3.439978950000000      2.725337250000000
C       7.797078990000000      4.643334770000000      3.249080360000000
Si      6.236222690000000      5.393976820000000     -0.034347720000000
C       8.013618409999999      6.177308190000000      0.597560160000000
Si      7.938951280000000      6.230532600000000      2.568168150000000
C       9.465506209999999      7.311647480000000      3.209321910000000
Si      6.232971380000000     -0.008725160000000      0.182376140000000
C       7.683382420000000      1.014441320000000      0.529374520000000
Si      7.662537160000000      1.075976700000000      2.639864620000000
C       9.355743170000000      1.875897660000000      3.051019590000000
Si      7.693141930000000      2.732453330000000      0.173294290000000
C       9.385344320000000      3.619047650000000      0.758175190000000
Si      9.103862210000001      3.703521190000000      2.616784510000000
C      11.018304660000000      4.596160950000000      3.336416530000000
Si      9.626475520000000      5.374418730000000     -0.036539510000000
C      11.118828349999999      6.286847980000000      0.763670190000000
Si     10.746077710000000      6.252744530000000      2.518380620000000
C      12.415605720000000      7.357762160000000      3.171143130000000
36

Si     -0.088565680000000     -0.057966180000000     -0.022334260000000
C       1.599887310000000      0.737410260000000      0.543480210000000
Si      1.686185770000000      0.889417160000000      2.410421200000000
C       3.132364640000000      1.887757710000000      3.079122770000000
Si      1.694483080000000      2.719498580000000     -0.074743320000000
C       3.116337170000000      3.681129570000000      0.649497690000000
Si      3.070389640000000      3.681677450000000      2.470868420000000
C       4.744436760000000      4.494254830000000      3.006423050000000
Si      3.083951370000000      5.399460280000000      0.007450020000000
C       4.618256660000000      6.070149050000000      0.624835450000000
Si      4.665206670000000      6.347305320000000      2.596592420000000
C       6.252838500000000      7.140592620000000      3.224392560000000
Si      2.946930910000000     -0.155123690000000     -0.083840830000000
C       4.554112720000000      0.945595970000000      0.696909820000000
Si      4.752541230000000      0.837382760000000      2.497870180000000
C       6.118867320000000      1.911829520000000      3.216376130000000
Si      4.711020760000000      2.571292900000000     -0.022889920000000
C       6.294147260000000      3.512486760000000      0.611041130000000
Si      6.206406760000000      3.701972780000000      2.435211730000000
C       7.903764750000000      4.445352490000000      3.294879380000000
Si      6.302145540000000      5.245002640000000     -0.130733040000000
C       7.796386770000000      6.061777600000000      0.703208860000000
Si      7.599207240000000      6.211430890000000      2.577196940000000
C       9.168755930000000      7.078113920000000      3.165458730000000
Si      6.072077740000000      0.073440370000000      0.004623420000000
C       7.687024360000000      0.915126550000000      0.638574400000000
Si      7.602774370000000      0.969279520000000      2.413760530000000
C       9.206899990000000      1.845019110000000      3.277168560000000
Si      7.743961450000000      2.746163020000000      0.153630490000000
C       9.505472850000000      3.518357220000000      0.746658530000000
Si      9.315539570000000      3.667992750000000      2.766001730000000
C      10.943517760000001      4.586096080000000      3.323978680000000
Si      9.361518439999999      5.261273320000000      0.152427740000000
C      10.701011380000001      6.398503410000000      0.675111860000000
Si     10.731725000000001      6.237789670000000      2.629223630000000
C      12.400994669999999      7.181920400000000      3.432890600000000
36

Si      0.080842180000000     -0.129521100000000      0.119835580000000
C       1.601727870000000      0.971503920000000      0.577468950000000
Si      1.750113860000000      1.020946080000000      2.566680580000000
C       3.284706270000000      1.715557790000000      3.177042030000000
Si      1.362433960000000      2.708988940000000     -0.195909230000000
C       3.046972510000000      3.718611270000000      0.585185810000000
Si      2.885477160000000      3.632000740000000      2.521146290000000
C       4.464420950000000      4.483690030000000      3.040398200000000
Si      3.071170350000000      5.308513510000000     -0.251534680000000
C       4.579074320000000      6.046158290000000      0.518305840000000
Si      4.533462170000000      6.265210260000000      2.323700370000000
C       6.066899040000000      7.220095710000000      3.025476870000000
Si      3.010695320000000     -0.061583970000000      0.182623870000000
C       4.723215410000000      0.868160070000000      0.485679310000000
Si      4.754585330000000      0.788127410000000      2.498525360000000
C       6.172596000000000      1.837390490000000      3.358807920000000
Si      4.635120400000000      2.680206240000000      0.198547210000000
C       6.134175080000000      3.433130380000000      0.789291440000000
Si      5.960819210000000      3.483160440000000      2.680594240000000
C       7.648958170000000      4.407479110000000      3.464013670000000
Si      6.110316330000000      5.152759200000000     -0.003180180000000
C       7.742769260000000      6.294487970000000      0.626162060000000
Si      7.851989310000000      6.176164650000000      2.463705010000000
C       9.374419230000001      6.995816110000000      3.206897780000000
Si      6.403218420000000     -0.168859410000000      0.072490800000000
C       7.981378490000000      0.803632800000000      0.748283830000000
Si      7.846637610000000      1.209845050000000      2.528941960000000
C       9.487172070000000      2.025205610000000      3.100884160000000
Si      7.763512340000000      2.666804710000000      0.191137410000000
C       9.296527230000001      3.608068220000000      0.647307390000000
Si      9.022514480000000      3.758736300000000      2.595986540000000
C      10.915531469999999      4.835859960000000      3.407471110000000
Si      9.277987090000000      5.268535070000000     -0.053511380000000
C      10.898849080000000      6.179508800000000      0.778154360000000
Si     10.982866700000001      6.400627490000000      2.510686080000000
C      12.685171400000000      7.403511390000000      2.976298330000000
36

Si      0.098420900000000     -0.004531300000000      0.270295060000000
C       1.783583130000000      0.782397290000000      0.689344600000000
Si      1.606423380000000      0.910380150000000      2.577321960000000
C       3.120836870000000      1.868007900000000      3.273240350000000
Si      2.001914920000000      2.522080720000000     -0.108765530000000
C       3.361570980000000      3.592289200000000      0.368713990000000
Si      2.938484610000000      3.436318320000000      2.460272120000000
C       4.634635230000000      4.387739170000000      3.072716540000000
Si      3.194627840000000      5.533863280000000      0.370988240000000
C       4.811655100000000      6.267894780000000      0.950162330000000
Si      4.487358780000000      6.227249040000000      2.809367050000000
C       6.174886990000000      7.175307730000000      3.212784960000000
Si      3.225727620000000     -0.173204670000000      0.217107020000000
C       4.591090180000000      0.868235590000000      0.610217770000000
Si      4.650032400000000      1.075825130000000      2.512392720000000
C       6.288340110000000      1.994655270000000      3.309835350000000
Si      4.798256860000000      2.645687400000000     -0.192549590000000
C       6.109368080000000      3.564683480000000      0.429684200000000
Si      6.046911470000000      3.456722580000000      2.322927250000000
C       7.754885140000000      4.589867730000000      3.193598570000000
Si      6.282771250000000      5.510294240000000      0.034901460000000
C       7.747226240000000      6.215345300000000      0.625670620000000
Si      7.725181100000000      6.388691680000000      2.746804060000000
C       9.213934660000000      7.156647490000000      3.397600630000000
Si      5.980320210000000     -0.276166890000000     -0.069903640000000
C       7.730161640000000      0.943312900000000      0.494728820000000
Si      7.538208170000000      1.196177000000000      2.357661020000000
C       9.116639010000000      1.615943920000000      3.112146880000000
Si      7.948605950000000      2.509873790000000     -0.140321820000000
C       9.564925110000001      3.299198550000000      0.614193250000000
Si      9.237766660000000      3.777989410000000      2.471973320000000
C      10.820586499999999      4.625336980000000      2.980971510000000
Si      9.163051210000001      5.061421350000000     -0.014138400000000
C      10.685444439999999      6.193491190000000      0.710542910000000
Si     10.650219070000000      6.596836630000000      2.383125300000000
C      11.962233080000001      7.158368920000000      3.329034510000000
36

Si      0.112534760000000     -0.101878870000000      0.069726940000000
C       1.893793510000000      0.898255320000000      0.744026670000000
Si      1.675769320000000      1.082373190000000      2.504836370000000
C       3.063869270000000      1.715402100000000      3.251425480000000
Si      1.357195670000000      2.614851150000000      0.151316970000000
C       2.824781870000000      3.678554540000000      0.750164420000000
Si      2.939912640000000      3.783581280000000      2.695789670000000
C       4.536380940000000      4.561080120000000      3.294620250000000
Si      3.244968230000000      5.218150270000000     -0.303830780000000
C       4.818337930000000      6.231007340000000      0.535330390000000
Si      4.674530130000000      6.294303650000000      2.383929680000000
C       6.294095910000000      7.227199720000000      2.892606490000000
Si      3.334673380000000     -0.208328310000000      0.038022530000000
C       4.849148830000000      1.027519550000000      0.677408650000000
Si      4.641867700000000      0.976489440000000      2.631925080000000
C       6.298758710000000      1.690444320000000      3.252931420000000
Si      4.313106780000000      2.645639450000000      0.132225320000000
C       6.047572560000000      3.679485060000000      0.726750440000000
Si      6.110445240000000      3.688016570000000      2.662459260000000
C       7.743573270000000      4.379723760000000      3.492563740000000
Si      6.263438470000000      5.223286220000000     -0.023291300000000
C       7.874611680000000      5.989428110000000      0.432523930000000
Si      7.773443140000000      6.057364040000000      2.442834050000000
C       9.327699530000000      7.000256770000000      2.991568700000000
Si      6.442172280000000      0.180343550000000     -0.038534010000000
C       7.909790990000000      0.918557810000000      0.587210350000000
Si      7.625965230000000      0.831051320000000      2.534530640000000
C       9.374750940000000      1.866223420000000      3.200443630000000
Si      7.595538140000000      2.904368690000000      0.258327470000000
C       9.268229720000001      3.487577750000000      0.521254460000000
Si      9.106514810000000      3.552857160000000      2.700222240000000
C      10.333239150000001      4.654241980000000      3.395787720000000
Si      9.482264259999999      5.416010600000000     -0.267683310000000
C      10.962900160000000      6.201433690000000      0.519072040000000
Si     10.742474130000000      6.238527470000000      2.534099950000000
C      12.371911180000000      7.088826920000000      2.881632220000000
36

Si      0.017623560000000      0.013837980000000      0.047910090000000
C       1.754338640000000      0.832896050000000      0.670004260000000
Si      1.551304720000000      0.821184660000000      2.643465530000000
C       3.083123530000000      1.831993900000000      3.310011150000000
Si      1.676291180000000      2.687887430000000     -0.153737020000000
C       3.063523160000000      3.412886740000000      0.572869910000000
Si      2.950662940000000      3.571140760000000      2.415662840000000
C       4.536613580000000      4.462061000000000      3.217767210000000
Si      3.079004050000000      5.260109660000000     -0.072455810000000
C       4.799411870000000      6.252512250000000      0.542448130000000
Si      4.725629520000000      6.172830100000000      2.537836240000000
C       6.216989690000000      7.169600410000000      3.124525510000000
Si      3.111398910000000      0.164758710000000     -0.032336180000000
C       4.716233010000000      1.003528780000000      0.698656610000000
Si      4.603557930000000      1.013437920000000      2.657583960000000
C       6.155599870000000      1.824599120000000      3.294020670000000
Si      4.635857050000000      2.625202610000000     -0.120860430000000
C       6.188673940000000      3.489284990000000      0.584413090000000
Si      5.968783940000000      3.633909300000000      2.532610840000000
C       7.718347130000000      4.485775990000000      3.191846110000000
Si      6.362234280000000      5.442590600000000      0.058986500000000
C       7.921722310000000      6.308171750000000      0.728653410000000
Si      7.944878530000000      6.377708100000000      2.690374380000000
C       9.495408440000000      7.381301330000000      3.249372470000000
Si      6.085103660000000     -0.004344360000000      0.187258560000000
C       7.665735680000000      0.988628590000000      0.711020580000000
Si      7.696145350000000      0.888177780000000      2.591801290000000
C       9.251585490000000      1.794098120000000      3.225543050000000
Si      7.732215840000000      2.644021210000000     -0.111678070000000
C       9.315895460000000      3.486492230000000      0.508192870000000
Si      9.129186870000000      3.387176760000000      2.505200240000000
C      10.629487310000000      4.478201980000000      3.020857810000000
Si      9.334511830000000      5.400091020000000      0.132399740000000
C      10.925868240000000      6.235899790000000      0.606858440000000
Si     10.843014430000000      6.240287320000000      2.453199660000000
C      12.330125360000000      6.990567580000000      3.226239070000000
36

Si      0.022879750000000     -0.038124920000000     -0.128683930000000
C       1.424311800000000      1.139808490000000      0.504089000000000
Si      1.615374980000000      0.911294650000000      2.296914980000000
C       3.161343420000000      1.565035650000000      3.064014710000000
Si      1.302419930000000      2.899571800000000      0.071909780000000
C       2.961694140000000      3.708535460000000      0.703600940000000
Si      3.322843120000000      3.450966020000000      2.537563780000000
C       4.651940180000000      4.469282590000000      3.209014140000000
Si      3.079218550000000      5.464895200000000     -0.226031590000000
C       4.595715300000000      6.137275300000000      0.497727400000000
Si      4.624715250000000      6.067912830000000      2.335250100000000
C       6.339416060000000      6.733972270000000      2.966146310000000
Si      2.938704920000000      0.016447940000000     -0.118735140000000
C       4.505018050000000      0.809466580000000      0.587111050000000
Si      4.783222610000000      0.800498950000000      2.641387590000000
C       6.171005170000000      1.673833520000000      3.215120260000000
Si      4.347991500000000      2.730030570000000      0.028567920000000
C       6.014834410000000      3.500159150000000      0.899365900000000
Si      6.295419840000000      3.581681320000000      2.852772430000000
C       7.715681720000000      4.694684240000000      3.223814720000000
Si      6.147722840000000      5.186674460000000     -0.021737040000000
C       7.777417730000000      6.440417860000000      0.632345710000000
Si      7.944360690000000      6.249569870000000      2.223505090000000
C       9.495517880000000      7.150630140000000      2.966143780000000
Si      6.289189820000000      0.110584030000000      0.267333970000000
C       7.857330080000000      0.865033570000000      0.658831570000000
Si      7.702107720000000      0.846879980000000      2.655375110000000
C       9.332163220000000      1.761619940000000      3.273122910000000
Si      7.548365610000000      2.920360710000000      0.123136280000000
C       9.039142180000001      3.843188050000000      0.784334520000000
Si      9.324809940000000      3.355150950000000      2.757781080000000
C      10.934314609999999      4.496844780000000      3.363518310000000
Si      9.421975440000001      5.546738110000000      0.056103720000000
C      10.824219220000000      6.345383510000000      0.805540420000000
Si     10.910211220000001      6.200427360000000      2.621533180000000
C      12.560448740000000      7.183232400000000      3.104380360000000
36

Si     -0.275144490000000      0.008394340000000     -0.291701180000000
C       1.242750920000000      0.893773320000000      0.547875670000000
Si      1.312112850000000      0.849958820000000      2.323865810000000
C       2.848767480000000      1.832692760000000      2.899039930000000
Si      1.560621980000000      2.727995940000000     -0.126991630000000
C       3.060496130000000      3.550002520000000      0.533062120000000
Si      3.175989410000000      3.610478090000000      2.409597800000000
C       4.837819940000000      4.233138110000000      3.136692800000000
Si      2.988408850000000      5.394520470000000     -0.133525770000000
C       4.690654400000000      6.197121000000000      0.490772400000000
Si      4.713885570000000      6.070733240000000      2.286481910000000
C       6.281745430000000      7.101082740000000      3.019641160000000
Si      2.880859930000000      0.087379550000000      0.031612390000000
C       4.805876250000000      1.021324010000000      0.707486700000000
Si      4.547652090000000      0.765715260000000      2.472872270000000
C       6.060233350000000      1.599595860000000      3.284770410000000
Si      4.590295560000000      2.827790210000000      0.106640180000000
C       6.229646190000000      3.648344610000000      0.700311410000000
Si      6.404135250000000      3.507934830000000      2.608295540000000
C       7.859019880000000      4.441419090000000      3.537165210000000
Si      6.213099150000000      5.509601560000000      0.021549310000000
C       7.724745200000000      6.214925570000000      0.761136490000000
Si      7.839845440000000      6.253389880000000      2.768758140000000
C       9.327305210000000      7.117397960000000      3.209477450000000
Si      6.211617790000000     -0.002546600000000      0.077223740000000
C       7.738892430000000      0.699049610000000      0.600516960000000
Si      7.665538170000000      0.784221760000000      2.634704000000000
C       9.116907670000000      1.729214610000000      3.158303820000000
Si      7.888364820000000      2.996308220000000      0.165799520000000
C       9.483559200000000      3.632986510000000      0.820867680000000
Si      9.334073399999999      3.588276630000000      2.921881720000000
C      10.970477499999999      4.519480950000000      3.365538670000000
Si      9.495169830000000      5.543017980000000     -0.092824620000000
C      10.908072170000001      6.377514980000000      0.774081950000000
Si     10.876986600000000      6.107248450000000      2.647881260000000
C      12.637581310000000      6.940363870000000      3.243117250000000
36

Si     -0.095677670000000     -0.119421740000000     -0.060758770000000
C       1.599600410000000      0.764606530000000      0.576339650000000
Si      1.567610700000000      0.855662710000000      2.487523260000000
C       3.000619390000000      1.806178850000000      3.178241520000000
Si      1.640575070000000      2.703443880000000      0.103002950000000
C       3.113725300000000      3.646043370000000      0.673190610000000
Si      3.151003840000000      3.675863250000000      2.551534950000000
C       4.703158670000000      4.325252520000000      3.340952160000000
Si      2.967685500000000      5.374497060000000     -0.026608570000000
C       4.433972050000000      6.297380420000000      0.592475570000000
Si      4.533027790000000      6.118716980000000      2.343895810000000
C       6.204515200000000      7.056522290000000      3.110250920000000
Si      3.060664070000000     -0.047977560000000     -0.228301750000000
C       4.603590630000000      0.988808700000000      0.509657710000000
Si      4.680504180000000      0.839355150000000      2.324893520000000
C       6.209699370000000      1.645063530000000      3.143327280000000
Si      4.633989280000000      2.714620390000000      0.045053730000000
C       6.184858500000000      3.720628010000000      0.678093590000000
Si      6.190526990000000      3.622904370000000      2.515786100000000
C       7.700200110000000      4.599660110000000      3.285602490000000
Si      6.290360810000000      5.471606690000000     -0.033748030000000
C       7.770722000000000      6.281728160000000      0.561771110000000
Si      7.817184190000000      6.323815520000000      2.614617590000000
C       9.406747530000001      7.151103230000000      3.167787110000000
Si      6.168251610000000      0.118255350000000      0.095671360000000
C       7.796502640000000      0.989202050000000      0.730588840000000
Si      7.817168980000000      0.961581080000000      2.573257720000000
C       9.246895370000001      1.602465650000000      3.124631420000000
Si      7.750726120000000      2.855779410000000      0.033262980000000
C       9.426273640000000      3.614511810000000      0.807805490000000
Si      9.335632580000000      3.551578380000000      2.712702690000000
C      10.830680530000000      4.417572780000000      3.374395050000000
Si      9.271505520000000      5.287032740000000      0.147769710000000
C      10.783477160000000      6.238811420000000      0.820742570000000
Si     10.794268210000000      6.133415280000000      2.600691620000000
C      12.455067840000000      7.047442880000000      3.188535270000000
36

Si      0.110709660000000     -0.025088760000000      0.203334630000000
C       1.639587970000000      0.672704040000000      0.905724520000000
Si      1.737716810000000      1.100310140000000      2.580654810000000
C       3.270356960000000      1.952121770000000      3.288925140000000
Si      1.764221840000000      2.450014170000000      0.062318570000000
C       3.237515980000000      3.407929340000000      0.772338510000000
Si      3.090188950000000      3.617111290000000      2.610293080000000
C       4.665926050000000      4.408966970000000      3.312046720000000
Si      3.133521020000000      5.515195620000000      0.111391700000000
C       4.644755990000000      6.168272470000000      0.944190270000000
Si      4.735158960000000      6.339241880000000      2.731164840000000
C       6.220617040000000      7.424127710000000      3.428444950000000
Si      3.264672860000000     -0.015108920000000      0.188934060000000
C       4.951073200000000      0.929316110000000      0.601255540000000
Si      4.794726600000000      0.914073610000000      2.370903480000000
C       6.273849550000000      1.817989100000000      3.358020540000000
Si      4.689646010000000      2.673929300000000     -0.008184540000000
C       6.332065080000000      3.417709590000000      0.443813230000000
Si      5.950133020000000      3.576757170000000      2.283662560000000
C       7.304853840000000      4.657769820000000      3.215392220000000
Si      6.015349810000000      5.406273330000000      0.018729480000000
C       7.387424740000000      6.196277370000000      0.686016720000000
Si      7.503934990000000      6.271183500000000      2.551458710000000
C       8.947216050000000      7.280837180000000      3.064521820000000
Si      6.361267500000000     -0.171448860000000     -0.077025580000000
C       7.881026140000000      0.923424110000000      0.619790220000000
Si      7.872276270000000      1.054868520000000      2.718780290000000
C       9.425662470000001      1.994125560000000      3.112254940000000
Si      7.625727230000000      2.502237640000000     -0.166303230000000
C       9.306728489999999      3.299166750000000      0.409065450000000
Si      9.076776380000000      3.642942320000000      2.371728480000000
C      10.570089820000000      4.529432350000000      3.154432630000000
Si      9.284394770000000      5.199521490000000     -0.258801490000000
C      10.698770990000000      6.196494220000000      0.664629690000000
Si     10.704746510000000      6.251741490000000      2.474075550000000
C      12.385044349999999      7.236606200000000      2.960997030000000
36

Si     -0.389928590000000     -0.035923350000000      0.032463420000000
C       1.395241610000000      0.988701800000000      0.300580780000000
Si      1.617476380000000      0.822844200000000      2.255291420000000
C       2.929251400000000      1.790194860000000      3.147757840000000
Si      1.550865670000000      2.652686000000000     -0.096223390000000
C       3.216385250000000      3.736513160000000      0.585165050000000
Si      3.199745670000000      3.479636960000000      2.506772070000000
C       4.809641730000000      4.505214620000000      3.243161860000000
Si      3.001610540000000      5.413153050000000      0.107781380000000
C       4.591895410000000      6.281222670000000      0.825716300000000
Si      4.763152150000000      6.311501270000000      2.757575970000000
C       6.232828840000000      7.082141490000000      3.266204350000000
Si      2.901862810000000      0.086553690000000     -0.141204760000000
C       4.477503900000000      1.114398450000000      0.480230870000000
Si      4.586898810000000      0.997410450000000      2.516886370000000
C       6.133837060000000      1.778260440000000      3.005011230000000
Si      4.894340640000000      2.826216110000000     -0.101804270000000
C       6.351538160000000      3.603382530000000      0.642410780000000
Si      6.315595340000000      3.550089120000000      2.540338650000000
C       8.111611310000001      4.344365160000000      3.191087670000000
Si      6.123968860000000      5.658367190000000      0.075510020000000
C       7.508497810000000      6.541420660000000      0.593920160000000
Si      7.991075530000000      6.049915500000000      2.662735180000000
C       9.385534120000001      7.051726250000000      3.308378990000000
Si      5.944893610000000     -0.023914090000000      0.100045950000000
C       7.622987660000000      0.931837520000000      0.721869270000000
Si      7.601529560000000      0.982511390000000      2.466923650000000
C       9.200967909999999      1.655013670000000      3.224276440000000
Si      7.745043220000000      2.673942980000000      0.032004250000000
C       9.315773560000000      3.277779110000000      0.536242070000000
Si      9.491278220000000      3.359608000000000      2.435110800000000
C      10.949076270000001      4.373758140000000      3.086216440000000
Si      9.160140990000000      5.334258270000000      0.158354250000000
C      10.862207310000001      6.364762510000000      0.760165740000000
Si     11.081958060000000      6.184133690000000      2.748211320000000
C      12.360328669999999      7.047598950000000      3.346155340000000
36

Si      0.095325010000000     -0.000983220000000      0.132290640000000
C       1.672937710000000      0.948251710000000      0.685221600000000
Si      1.681538900000000      0.906310090000000      2.588490250000000
C       3.059740130000000      1.904934430000000      3.353261140000000
Si      1.621800000000000      2.718900070000000     -0.016780590000000
C       3.099420760000000      3.551553430000000      0.690075140000000
Si      3.122090570000000      3.536946720000000      2.592499140000000
C       4.610184160000000      4.511120030000000      3.165524490000000
Si      3.118134660000000      5.360008800000000      0.086290950000000
C       4.649839200000000      6.195619330000000      0.657831990000000
Si      4.670991780000000      6.202702040000000      2.497619720000000
C       6.115348350000000      7.140056690000000      3.224740780000000
Si      3.101332460000000     -0.010067820000000      0.071078510000000
C       4.682140510000000      0.946066830000000      0.577212140000000
Si      4.559715800000000      0.998182790000000      2.524926780000000
C       6.142047490000000      1.793339220000000      3.222736360000000
Si      4.675281060000000      2.707738080000000     -0.077940970000000
C       6.131122310000000      3.562731590000000      0.636960120000000
Si      6.115974360000000      3.580457070000000      2.517260070000000
C       7.624427690000000      4.409347050000000      3.101945230000000
Si      6.191481770000000      5.436183410000000     -0.048194880000000
C       7.775303750000000      6.330486400000000      0.561467430000000
Si      7.647928680000000      6.209679750000000      2.481322510000000
C       9.188449730000000      7.172332440000000      3.191282590000000
Si      6.277577250000000      0.014145720000000     -0.031262880000000
C       7.703407540000000      0.857398910000000      0.608896140000000
Si      7.672726200000000      0.838820660000000      2.544266770000000
C       9.334892999999999      1.836926600000000      3.128054140000000
Si      7.751468420000000      2.654200670000000      0.046150750000000
C       9.275853020000000      3.533722750000000      0.588212220000000
Si      9.281068700000001      3.573381480000000      2.507354160000000
C      10.810184350000000      4.498412880000000      3.231962590000000
Si      9.343726110000000      5.317421460000000      0.007188370000000
C      10.839318140000000      6.258082740000000      0.700934080000000
Si     10.806503960000001      6.239591930000000      2.562768730000000
C      12.382357989999999      7.109970130000000      3.105292210000000
36

Si      0.069058530000000     -0.070355430000000      0.020659150000000
C       1.470396540000000      0.973219890000000      0.744540680000000
Si      1.591637400000000      0.988593530000000      2.642605150000000
C       3.153130070000000      1.729746210000000      3.160514360000000
Si      1.560315570000000      2.793863280000000      0.033935960000000
C       3.172194410000000      3.624178310000000      0.677077390000000
Si      3.103541120000000      3.578515540000000      2.572884360000000
C       4.635767320000000      4.398237930000000      3.130092470000000
Si      3.059212060000000      5.366681370000000      0.031758860000000
C       4.703602250000000      6.165844490000000      0.594208290000000
Si      4.642640550000000      6.195771190000000      2.497928170000000
C       6.200666840000000      7.098440370000000      3.224327560000000
Si      3.007147400000000      0.171799040000000      0.004725290000000
C       4.668881080000000      0.970021410000000      0.644737960000000
Si      4.638453750000000      0.865933940000000      2.514079600000000
C       6.187277740000000      1.703067980000000      3.146020950000000
Si      4.664322920000000      2.782766150000000      0.045411410000000
C       6.273001110000000      3.520413780000000      0.626625020000000
Si      6.170987980000000      3.498156570000000      2.557147920000000
C       7.659948960000000      4.446845460000000      3.219990990000000
Si      6.299269160000000      5.349187510000000     -0.072181170000000
C       7.718260150000000      6.303358630000000      0.665062970000000
Si      7.640978340000000      6.194652770000000      2.542643420000000
C       9.309401060000001      7.142769070000000      3.113875870000000
Si      6.195406980000000      0.042326400000000     -0.028027570000000
C       7.836612180000000      0.801260690000000      0.598516220000000
Si      7.727034950000000      0.891652820000000      2.573870010000000
C       9.182674179999999      1.870731380000000      3.177402360000000
Si      7.715380710000000      2.623354940000000      0.002799660000000
C       9.248740500000000      3.587160560000000      0.542379980000000
Si      9.266042669999999      3.569662890000000      2.478843940000000
C      10.849028680000000      4.405009590000000      3.174382460000000
Si      9.289456160000000      5.400562190000000      0.044586920000000
C      10.907810169999999      6.229815560000000      0.574425340000000
Si     10.884542840000000      6.246034820000000      2.591719080000000
C      12.408843610000000      7.109615020000000      3.253602160000000
36

Si     -0.087691930000000      0.002886680000000     -0.009919990000000
C       1.556202140000000      0.824413770000000      0.523724110000000
Si      1.661944210000000      0.864225540000000      2.394767110000000
C       3.099656870000000      1.808325940000000      3.205400480000000
Si      1.530552340000000      2.687926330000000     -0.033930200000000
C       3.037999050000000      3.531647730000000      0.658300560000000
Si      3.121687390000000      3.581818630000000      2.565782560000000
C       4.668027390000000      4.529609650000000      3.144295740000000
Si      3.027866970000000      5.348396370000000     -0.048380800000000
C       4.546270630000000      6.265179290000000      0.527201800000000
Si      4.656634150000000      6.281308990000000      2.430758420000000
C       6.151616780000000      7.211708310000000      3.122434300000000
Si      3.100741250000000     -0.074921460000000      0.043080220000000
C       4.612596120000000      0.882534320000000      0.653940980000000
Si      4.668666800000000      0.839182290000000      2.533485940000000
C       6.241415920000000      1.664258010000000      3.253999860000000
Si      4.668284800000000      2.696185930000000      0.057423950000000
C       6.164949980000000      3.596074490000000      0.712747540000000
Si      6.272194120000000      3.515659580000000      2.573842970000000
C       7.771007920000000      4.449268190000000      3.176196370000000
Si      6.144346530000000      5.419421770000000      0.008522850000000
C       7.750540030000000      6.297517500000000      0.707722150000000
Si      7.742900260000000      6.258248470000000      2.672861070000000
C       9.256021120000000      7.178202110000000      3.282532960000000
Si      6.205088580000000     -0.025157060000000     -0.043498690000000
C       7.618327100000000      0.864825850000000      0.631330740000000
Si      7.828197390000000      0.871261600000000      2.584063940000000
C       9.411781070000000      1.859186400000000      3.091105870000000
Si      7.690244210000000      2.728068110000000      0.059296630000000
C       9.210847990000000      3.620208520000000      0.641564020000000
Si      9.365982550000000      3.579905360000000      2.557137580000000
C      10.856540460000000      4.579528860000000      3.258649720000000
Si      9.337778960000000      5.360016560000000      0.014452860000000
C      10.780970220000000      6.263719490000000      0.712251570000000
Si     10.782466010000000      6.335961570000000      2.624424450000000
C      12.401444500000000      7.165067570000000      3.130917390000000
36

Si      0.139520080000000     -0.051010990000000      0.206422800000000
C       1.597182220000000      0.872809070000000      0.797533940000000
Si      1.555455980000000      0.930137880000000      2.709805310000000
C       3.124564500000000      1.876957110000000      3.286216470000000
Si      1.434871170000000      2.565460130000000     -0.063853260000000
C       2.869142310000000      3.606155700000000      0.565728660000000
Si      2.940562070000000      3.514411300000000      2.566111560000000
C       4.624992900000000      4.539089210000000      3.135179030000000
Si      3.100494150000000      5.384922790000000     -0.080192110000000
C       4.519197820000000      6.239351460000000      0.652099220000000
Si      4.618431370000000      6.229647230000000      2.485628070000000
C       6.266318810000000      7.003935300000000      3.144317930000000
Si      3.248745900000000      0.011428180000000      0.108529100000000
C       4.819654150000000      1.131745450000000      0.756270430000000
Si      4.713636140000000      0.896923210000000      2.535436770000000
C       6.057824960000000      1.861431850000000      3.255728260000000
Si      4.593731900000000      2.739495250000000     -0.070305810000000
C       6.115252920000000      3.590169990000000      0.716306680000000
Si      6.135349940000000      3.650584680000000      2.647841670000000
C       7.831915940000000      4.517173740000000      2.985511900000000
Si      6.215593800000000      5.473071880000000      0.147642290000000
C       7.916298550000000      6.153995890000000      0.731796240000000
Si      7.847993950000000      6.323355690000000      2.494646010000000
C       9.408076590000000      7.215623770000000      3.140683690000000
Si      6.144486640000000      0.002561010000000      0.028098040000000
C       7.844168580000000      0.832863870000000      0.659689340000000
Si      7.778264470000000      0.906822720000000      2.450396930000000
C       9.125520390000000      1.835022250000000      3.195470140000000
Si      7.605837370000000      2.694408320000000     -0.044342080000000
C       9.196251200000001      3.366028050000000      0.562742910000000
Si      9.239203359999999      3.495938260000000      2.471759730000000
C      10.829740550000000      4.476435080000000      3.079076660000000
Si      9.432906980000000      5.230103130000000     -0.068798620000000
C      10.686664250000000      6.406988080000000      0.615777440000000
Si     10.938372060000001      6.264409790000000      2.427389970000000
C      12.383950459999999      7.083563210000000      3.228906900000000
36

Si      0.238312580000000     -0.185093240000000      0.006163990000000
C       1.747743790000000      0.696254160000000      0.616416480000000
Si      1.720832200000000      1.121463880000000      2.598046860000000
C       3.293393070000000      2.011854060000000      3.326843070000000
Si      1.494937970000000      2.681121730000000      0.064656910000000
C       3.057320400000000      3.333127330000000      0.903041980000000
Si      2.896133890000000      3.719216530000000      2.798815540000000
C       4.635499650000000      4.662483160000000      3.338910310000000
Si      3.211050410000000      5.155755880000000     -0.164916730000000
C       4.705410070000000      6.015424530000000      0.553539310000000
Si      4.777487880000000      6.244469080000000      2.500934120000000
C       6.208641230000000      7.271833660000000      3.056440940000000
Si      3.398648330000000     -0.100131400000000      0.195774810000000
C       4.754418730000000      0.768488570000000      0.685680560000000
Si      4.613161970000000      0.960657060000000      2.463766050000000
C       6.062208780000000      1.599447960000000      3.304580310000000
Si      4.597823200000000      2.662884770000000      0.262280640000000
C       6.053459520000000      3.527262790000000      0.777296240000000
Si      6.113653740000000      3.577225220000000      2.622932330000000
C       7.386403900000000      4.574280170000000      3.203861800000000
Si      6.337189540000000      5.352806040000000     -0.182914950000000
C       7.948363100000000      6.215840770000000      0.671983980000000
Si      7.588816270000000      6.217634370000000      2.536211750000000
C       9.013598860000000      7.241737980000000      3.054796810000000
Si      6.376465210000000     -0.072751660000000      0.060139960000000
C       7.864120190000000      1.076756600000000      0.802232560000000
Si      7.668801840000000      0.900537700000000      2.519490230000000
C       9.378564350000000      1.771620370000000      3.262792390000000
Si      7.601010580000000      2.744682830000000     -0.156972500000000
C       9.103602700000000      3.694219670000000      0.545863220000000
Si      8.952066459999999      3.527441560000000      2.503616520000000
C      10.509121909999999      4.641548150000000      3.112112260000000
Si      9.341474590000001      5.365436030000000     -0.281766340000000
C      10.966497360000000      6.232137720000000      0.484793520000000
Si     10.776540839999999      6.434440510000000      2.548560460000000
C      12.479361380000000      7.169501660000000      2.942061710000000
36

Si      0.011294130000000     -0.017549850000000      0.059421790000000
C       1.563225430000000      0.763962490000000      0.698645240000000
Si      1.408103690000000      0.871713940000000      2.555030730000000
C       3.029011040000000      1.875274990000000      3.273291780000000
Si      1.355338930000000      2.608674500000000      0.022187310000000
C       3.023699200000000      3.622148460000000      0.649856400000000
Si      2.988490410000000      3.595074050000000      2.629789620000000
C       4.559820120000000      4.443426010000000      3.268912250000000
Si      3.103470810000000      5.316376210000000     -0.034614150000000
C       4.797346410000000      6.214231570000000      0.567253910000000
Si      4.705078590000000      6.181381630000000      2.501103670000000
C       6.145713060000000      7.225132430000000      3.298354940000000
Si      3.195264550000000      0.153624930000000      0.076422490000000
C       4.734455610000000      0.995482010000000      0.634543270000000
Si      4.661989730000000      0.879776380000000      2.619813290000000
C       6.113207380000000      1.571936610000000      3.166172340000000
Si      4.657564610000000      2.839672720000000     -0.136463710000000
C       6.108508310000000      3.707225560000000      0.755459760000000
Si      6.272185460000000      3.444082930000000      2.579042870000000
C       7.923097010000000      4.313916680000000      3.121502950000000
Si      6.383375320000000      5.486915620000000      0.133055680000000
C       7.995650980000000      6.353667720000000      0.671320020000000
Si      7.774205030000000      6.311569380000000      2.403859110000000
C       9.385327620000000      7.249553190000000      3.144714580000000
Si      6.229369760000000      0.054977690000000      0.107356400000000
C       7.708072120000000      0.960624850000000      0.730869850000000
Si      7.742824790000000      0.905233980000000      2.504905790000000
C       9.385470840000000      1.745317130000000      3.284160680000000
Si      7.487328820000000      2.613272850000000     -0.120620730000000
C       9.108218160000000      3.456797290000000      0.636609460000000
Si      9.297996080000001      3.443585810000000      2.416142240000000
C      10.691622499999999      4.513847260000000      3.122772600000000
Si      9.303413580000001      5.359203340000000      0.014138260000000
C      10.999111270000000      6.406185350000000      0.666975520000000
Si     10.891064240000000      6.260585750000000      2.480412920000000
C      12.448128770000000      7.084212930000000      3.147866990000000
36

Si     -0.061863840000000     -0.005840790000000      0.013586640000000
C       1.573054660000000      0.831620530000000      0.530093090000000
Si      1.590624460000000      0.926923160000000      2.413218050000000
C       3.168801480000000      1.847604580000000      3.061908010000000
Si      1.547769440000000      2.694318220000000     -0.025811500000000
C       3.084847860000000      3.576670100000000      0.586692030000000
Si      3.001565390000000      3.606206610000000      2.478620350000000
C       4.627094580000000      4.403773160000000      3.154928100000000
Si      3.082724130000000      5.381191500000000     -0.027130660000000
C       4.629735740000000      6.190194400000000      0.576489520000000
Si      4.548273990000000      6.294904140000000      2.502954590000000
C       6.120524470000000      7.204353940000000      3.151285480000000
Si      3.207776560000000     -0.053964840000000     -0.017363190000000
C       4.671812060000000      0.937892140000000      0.674012390000000
Si      4.630118220000000      0.879169520000000      2.585601320000000
C       6.234195800000000      1.713081360000000      3.181706580000000
Si      4.698450590000000      2.727346950000000      0.092525310000000
C       6.291303720000000      3.608753940000000      0.769744590000000
Si      6.213357380000000      3.539479830000000      2.578643580000000
C       7.856334590000000      4.369139110000000      3.227063830000000
Si      6.204215630000000      5.349111760000000      0.047195970000000
C       7.838591370000000      6.252152260000000      0.599218880000000
Si      7.678221940000000      6.168664920000000      2.557202450000000
C       9.270280039999999      7.110710610000000      3.274690990000000
Si      6.193655880000000     -0.008566020000000     -0.008896450000000
C       7.694670240000000      0.858498060000000      0.627340230000000
Si      7.720559700000000      0.881095270000000      2.464756880000000
C       9.304070350000000      1.744245580000000      3.103948600000000
Si      7.733160250000000      2.755336180000000      0.077902730000000
C       9.308189049999999      3.511630030000000      0.739953230000000
Si      9.325543870000001      3.514081980000000      2.565238210000000
C      10.863777360000000      4.640895400000000      3.234805200000000
Si      9.361382310000000      5.352367330000000      0.051402950000000
C      10.861228850000000      6.294854850000000      0.668109220000000
Si     10.753485780000000      6.387508640000000      2.669076380000000
C      12.413155509999999      7.217089000000000      3.191530980000000
36

Si      0.200303840000000      0.188641000000000      0.071366300000000
C       1.759741480000000      0.979834320000000      0.843440260000000
Si      1.785478530000000      0.866976560000000      2.632117380000000
C       3.236934970000000      1.701340420000000      3.294866260000000
Si      1.538421180000000      2.829631360000000     -0.033278440000000
C       3.080240710000000      3.613069920000000      0.737444990000000
Si      2.888107410000000      3.551272010000000      2.750746250000000
C       4.424885340000000      4.554871850000000      3.085934130000000
Si      3.150477460000000      5.310949500000000     -0.243773780000000
C       4.533798150000000      6.256325140000000      0.496698550000000
Si      4.493040000000000      6.044220710000000      2.321316930000000
C       6.096166680000000      6.973816150000000      2.824021890000000
Si      3.081458970000000      0.181012950000000     -0.011805710000000
C       4.672304260000000      0.834434640000000      0.624223090000000
Si      4.873098720000000      0.657115390000000      2.485087720000000
C       6.166427620000000      1.931998900000000      3.313549830000000
Si      4.508474960000000      2.523246440000000      0.123760600000000
C       6.015750290000000      3.701331760000000      0.680129130000000
Si      5.972076180000000      3.477656580000000      2.580887870000000
C       7.502773530000000      4.434306760000000      3.335131870000000
Si      6.074316500000000      5.479389630000000      0.066898020000000
C       7.750738560000000      6.180569230000000      0.391992760000000
Si      7.591611170000000      5.958945850000000      2.444821820000000
C       9.433860380000000      6.939107410000000      3.140834080000000
Si      6.286722520000000      0.144129790000000      0.083622440000000
C       7.740438680000000      0.897474850000000      0.677171780000000
Si      7.934313020000000      0.995501530000000      2.630423950000000
C       9.635352660000001      1.934901720000000      3.240614780000000
Si      7.592297560000000      2.832613240000000      0.107336790000000
C       9.242240490000000      3.759381880000000      0.770999040000000
Si      9.320840340000000      3.738625590000000      2.745057270000000
C      10.743473820000000      4.589815120000000      3.338358090000000
Si      9.354620519999999      5.305077160000000     -0.128803400000000
C      10.819266780000000      6.267718890000000      0.333809060000000
Si     11.005391449999999      6.175977780000000      2.463487390000000
C      12.438100400000000      7.062985760000000      3.059343120000000
36

Si      0.007356600000000      0.077991760000000      0.162198110000000
C       1.544076620000000      1.076097220000000      0.508756800000000
Si      1.804329940000000      0.981696200000000      2.362441500000000
C       3.219623380000000      1.903710300000000      3.259009040000000
Si      1.383513480000000      2.830252000000000      0.135044560000000
C       2.922551250000000      3.558997590000000      0.615659370000000
Si      2.953274020000000      3.673529990000000      2.622914060000000
C       4.467334050000000      4.161860900000000      3.443158490000000
Si      2.886651790000000      5.446776650000000     -0.394401340000000
C       4.495861640000000      6.249369380000000      0.471831860000000
Si      4.694651650000000      5.982693810000000      2.301401250000000
C       6.262687370000000      6.908464780000000      3.011760560000000
Si      3.255789020000000     -0.002355250000000      0.089763630000000
C       4.674942510000000      0.822657720000000      0.753061020000000
Si      4.733495830000000      0.795682550000000      2.610662530000000
C       6.573648360000000      1.624118190000000      3.200546170000000
Si      4.528347560000000      2.579330640000000     -0.009680520000000
C       5.990188560000000      3.547189630000000      0.569743480000000
Si      6.107225030000000      3.352172240000000      2.543321320000000
C       7.650984940000000      4.579175650000000      3.101407060000000
Si      6.201117190000000      5.204554240000000     -0.153603640000000
C       7.811061200000000      6.246635980000000      0.522667760000000
Si      7.673534520000000      6.230650760000000      2.435969860000000
C       9.220703970000001      7.156045620000000      3.185007800000000
Si      6.088493900000000      0.079597760000000      0.127560310000000
C       7.641843850000000      1.089509440000000      0.738552300000000
Si      8.055973220000000      0.929445920000000      2.532139470000000
C       9.549752399999999      1.865245740000000      3.216105770000000
Si      7.680658350000000      2.778674880000000      0.259379270000000
C       9.173261549999999      3.695200390000000      0.856936330000000
Si      9.310747989999999      3.670346310000000      2.834531380000000
C      10.779969169999999      4.584298260000000      3.370296080000000
Si      9.316905640000000      5.416169670000000      0.022761300000000
C      10.639913440000001      6.322913210000000      0.664506020000000
Si     11.008913260000000      6.318604250000000      2.462369970000000
C      12.580724820000000      7.023432430000000      3.037434830000000
36

Si     -0.346006530000000      0.192585280000000     -0.218307180000000
C       1.333655970000000      0.684935560000000      0.533447260000000
Si      1.285317790000000      0.918291260000000      2.332456500000000
C       2.801215030000000      1.819367480000000      3.082598310000000
Si      1.507431680000000      2.487272630000000      0.078009990000000
C       2.941737910000000      3.521734790000000      0.629693010000000
Si      3.277949730000000      3.617315810000000      2.449646930000000
C       4.806341940000000      4.425967980000000      3.215530320000000
Si      3.117686260000000      5.280864290000000      0.021521770000000
C       4.767560180000000      6.209001110000000      0.488169230000000
Si      4.699648920000000      6.222782570000000      2.463549750000000
C       6.451469770000000      7.386149010000000      3.110635310000000
Si      3.148830570000000     -0.049060050000000     -0.144874910000000
C       4.420638210000000      0.928052130000000      0.550789640000000
Si      4.469018410000000      0.774554900000000      2.413640580000000
C       6.160301270000000      1.754277560000000      3.191621940000000
Si      4.565754210000000      2.622732880000000      0.054082390000000
C       6.182821190000000      3.683474070000000      0.685260960000000
Si      6.473107110000000      3.855795290000000      2.604207200000000
C       8.027316440000000      4.626990880000000      3.399534570000000
Si      6.219309850000000      5.420444980000000      0.154019270000000
C       7.861495660000000      6.282134670000000      0.781200500000000
Si      7.817296950000000      6.590435870000000      2.606285820000000
C       9.474323699999999      7.124843280000000      2.977600800000000
Si      5.976542830000000     -0.167467330000000      0.281842570000000
C       7.546254270000000      0.813162740000000      0.502156460000000
Si      7.671186540000000      0.688874030000000      2.526991520000000
C       9.159656770000000      1.746321160000000      3.173375100000000
Si      7.787206840000000      2.794575720000000      0.066066530000000
C       9.339914309999999      3.578506120000000      0.700989820000000
Si      9.504905550000000      3.442765180000000      2.704937510000000
C      11.101948589999999      4.600751970000000      3.255972580000000
Si      9.323000309999999      5.452486880000000      0.114606770000000
C      10.924946790000000      6.261730190000000      0.737212500000000
Si     10.915029329999999      6.145174050000000      2.553187100000000
C      12.547027580000000      7.097041320000000      3.236842550000000
36

Si     -0.060126130000000      0.001846770000000      0.049474440000000
C       1.620340510000000      0.929609370000000      0.555840270000000
Si      1.439989200000000      0.831649030000000      2.399345420000000
C       3.148862440000000      1.719774600000000      3.287948360000000
Si      1.591635340000000      2.771131790000000     -0.037271870000000
C       3.322514170000000      3.670243570000000      0.689185700000000
Si      3.218763360000000      3.419908180000000      2.529080530000000
C       4.641264970000000      4.602170390000000      3.297545620000000
Si      3.320685740000000      5.505598750000000      0.366103980000000
C       4.809578780000000      6.428686310000000      0.833937240000000
Si      4.506201820000000      6.178014320000000      2.789253500000000
C       6.271010280000000      7.157750100000000      3.599976030000000
Si      3.038320460000000      0.042173440000000     -0.181310960000000
C       4.565459970000000      0.825056250000000      0.696371150000000
Si      4.651150390000000      1.009142620000000      2.692811140000000
C       6.001811160000000      1.827037250000000      3.116234440000000
Si      4.951891900000000      2.616590600000000     -0.087756900000000
C       6.463404820000000      3.382002700000000      0.554898730000000
Si      6.329686600000000      3.573021480000000      2.442666410000000
C       7.819323410000000      4.614814510000000      2.947086850000000
Si      6.297063090000000      5.476810190000000      0.026033280000000
C       7.953424560000000      6.523541990000000      0.698274300000000
Si      7.554321200000000      6.532444600000000      2.654652950000000
C       9.106550479999999      7.153295800000000      3.389389600000000
Si      5.937970660000000     -0.174744890000000     -0.091001690000000
C       7.617687050000000      0.859325550000000      0.504024140000000
Si      7.572682810000000      1.047396940000000      2.454151220000000
C       9.008896660000000      1.724057590000000      2.990467680000000
Si      7.816296580000000      2.663880270000000     -0.213988380000000
C       9.245489620000001      3.436770110000000      0.492798620000000
Si      9.314018580000001      3.434895510000000      2.407658320000000
C      10.882072890000000      4.116259040000000      2.971991830000000
Si      9.259070940000001      5.222477890000000      0.064519460000000
C      10.802629430000000      6.073678700000000      0.799670540000000
Si     10.836414990000000      6.242346700000000      2.604218300000000
C      12.187577210000001      7.256809450000000      3.278824650000000
36

Si      0.048892960000000      0.007057680000000     -0.033751400000000
C       1.649705460000000      0.898288470000000      0.479258880000000
Si      1.436841020000000      0.893617760000000      2.421315840000000
C       3.112927280000000      1.742180560000000      3.131496990000000
Si      1.714064110000000      2.746328740000000     -0.000839010000000
C       3.236508840000000      3.684654410000000      0.550347730000000
Si      3.171581680000000      3.659681180000000      2.559705180000000
C       4.643222160000000      4.591068690000000      3.117124110000000
Si      2.964551830000000      5.451792920000000     -0.012474370000000
C       4.473472590000000      6.349139680000000      0.758149780000000
Si      4.619532560000000      6.233258360000000      2.486325380000000
C       6.136836160000000      7.076171490000000      3.218248750000000
Si      3.203091710000000     -0.256916730000000     -0.073545630000000
C       4.505402810000000      0.772259720000000      0.499046890000000
Si      4.563899420000000      0.744393960000000      2.360535470000000
C       6.224215730000000      1.835473140000000      3.128735230000000
Si      4.670574990000000      2.765443660000000     -0.001482680000000
C       6.323527400000000      3.566693400000000      0.709012880000000
Si      6.354542930000000      3.458505730000000      2.484019170000000
C       7.723617650000000      4.524421660000000      3.265748870000000
Si      5.965353470000000      5.388543410000000      0.065567570000000
C       7.451832530000000      6.154313660000000      0.662561260000000
Si      7.755532700000000      6.198981460000000      2.597945100000000
C       9.258375810000000      7.118188640000000      3.271763240000000
Si      6.172447710000000      0.083963790000000     -0.135351350000000
C       7.665785800000000      0.857331280000000      0.785828800000000
Si      7.624724260000000      0.908550890000000      2.551913870000000
C       9.410984689999999      1.861712970000000      3.174051790000000
Si      7.847179360000000      2.727015870000000      0.099627790000000
C       9.466689510000000      3.588959580000000      0.712770980000000
Si      9.473463499999999      3.578205630000000      2.594751890000000
C      10.869951289999999      4.456590080000000      3.267683800000000
Si      9.202267150000001      5.355573620000000      0.191152050000000
C      10.832386950000000      6.310073750000000      0.772985850000000
Si     10.856914050000000      6.286211460000000      2.642547380000000
C      12.320134890000000      7.297722170000000      3.364914670000000
36

Si      0.293335570000000      0.108419970000000      0.156563260000000
C       1.802408070000000      0.808539720000000      0.838895220000000
Si      1.559548870000000      0.998918960000000      2.849884500000000
C       3.119719690000000      2.044876290000000      3.481879460000000
Si      1.562010920000000      2.501990630000000      0.113322620000000
C       3.052798310000000      3.553039130000000      0.762067840000000
Si      3.243036620000000      3.656101100000000      2.527610170000000
C       4.813161120000000      4.355034730000000      3.239375710000000
Si      3.169931280000000      5.378805270000000      0.201868660000000
C       4.743976210000000      6.105933270000000      0.771676320000000
Si      4.508049760000000      6.261406450000000      2.724335600000000
C       6.173320880000000      7.430890370000000      3.559173410000000
Si      3.240101520000000     -0.083328010000000     -0.272750070000000
C       4.916600630000000      0.927246200000000      0.706043990000000
Si      4.604908420000000      1.147382990000000      2.687568290000000
C       6.241271710000000      1.742663630000000      2.929164940000000
Si      4.588061840000000      2.661100390000000     -0.283907390000000
C       6.200785910000000      3.364328320000000      0.616814320000000
Si      6.294773830000000      3.547022260000000      2.353261030000000
C       7.702933350000000      4.605095600000000      3.042244110000000
Si      6.229037630000000      5.256081950000000      0.114338970000000
C       7.588737100000000      6.222845580000000      0.687962050000000
Si      7.513586680000000      6.586472870000000      2.583751470000000
C       9.166203729999999      7.356644000000000      2.959315410000000
Si      6.356725350000000      0.005358160000000      0.154330990000000
C       7.895221470000000      0.981263300000000      0.474633130000000
Si      7.715000040000000      0.830061130000000      2.336908760000000
C       9.142606850000000      1.607018210000000      3.068015160000000
Si      7.706775230000000      2.649823390000000     -0.087020670000000
C       9.336739820000000      3.442997960000000      0.482231540000000
Si      9.143965959999999      3.456992720000000      2.315343580000000
C      10.691565890000000      4.546510420000000      3.011339520000000
Si      9.169854120000000      5.207182410000000      0.100870340000000
C      10.828483869999999      6.230535960000000      0.583937500000000
Si     10.599071800000001      6.165366890000000      2.465683110000000
C      12.234365190000000      7.114374110000000      3.084409770000000
36

Si     -0.055038390000000     -0.030542720000000      0.053616290000000
C       1.439915390000000      0.846088110000000      0.694757640000000
Si      1.609672270000000      0.868891500000000      2.699438850000000
C       3.125203200000000      1.823104680000000      3.250718990000000
Si      1.453446270000000      2.582789170000000      0.054130110000000
C       3.013081460000000      3.438502500000000      0.664575540000000
Si      2.860439850000000      3.569160880000000      2.536729910000000
C       4.500567120000000      4.549721160000000      3.286463100000000
Si      3.052415430000000      5.320572560000000     -0.049960380000000
C       4.672721360000000      6.176428230000000      0.580716480000000
Si      4.788867990000000      6.148039120000000      2.396766350000000
C       6.203005480000000      7.248391610000000      3.219476260000000
Si      3.113331020000000     -0.073169090000000      0.020316090000000
C       4.645254740000000      0.871289000000000      0.702442360000000
Si      4.710797190000000      0.980820450000000      2.577580240000000
C       6.320872110000000      1.931152000000000      3.354639980000000
Si      4.670570810000000      2.705603940000000      0.097896970000000
C       6.172771460000000      3.623480760000000      0.658744240000000
Si      6.228626880000000      3.659933660000000      2.436880840000000
C       7.667767850000000      4.552980440000000      2.998159070000000
Si      6.203375860000000      5.365447790000000     -0.101421540000000
C       7.874715750000000      6.316236520000000      0.708369750000000
Si      7.898327930000000      6.336973010000000      2.538731510000000
C       9.375764869999999      7.292255750000000      3.231466620000000
Si      6.093701480000000      0.061524050000000      0.000443160000000
C       7.770680990000000      0.953927510000000      0.680821800000000
Si      7.726902560000000      0.867420190000000      2.554618020000000
C       9.338962170000000      1.779289990000000      3.260228870000000
Si      7.678617750000000      2.573841300000000     -0.155274540000000
C       9.194759919999999      3.524608470000000      0.547526480000000
Si      9.187999880000000      3.527492910000000      2.387441520000000
C      10.702012000000000      4.427425960000000      3.158797010000000
Si      9.530946930000001      5.321004190000000      0.031704740000000
C      11.024442790000000      6.350845510000000      0.781173500000000
Si     10.774012409999999      6.328523710000000      2.629776250000000
C      12.540031940000000      7.250485470000000      3.297705610000000
36

Si     -0.040739100000000      0.145103930000000     -0.041417510000000
C       1.600772550000000      0.814754240000000      0.462059100000000
Si      1.597769180000000      0.985460840000000      2.503018830000000
C       3.180862540000000      1.899389970000000      3.085832220000000
Si      1.683714620000000      2.712846490000000     -0.084980500000000
C       3.115197710000000      3.557284760000000      0.578500940000000
Si      3.080536900000000      3.725156680000000      2.445332530000000
C       4.818885730000000      4.591722740000000      3.076959960000000
Si      3.100539710000000      5.394064090000000      0.141446490000000
C       4.782600110000000      6.215723150000000      0.725566770000000
Si      4.699337040000000      6.275116200000000      2.686820800000000
C       6.039926840000000      7.257036540000000      3.287360930000000
Si      3.136394440000000     -0.120715740000000      0.035951050000000
C       4.686806730000000      0.833047660000000      0.708660420000000
Si      4.512722470000000      0.920969090000000      2.541317190000000
C       6.152138240000000      1.741719280000000      3.293849460000000
Si      4.611189140000000      2.735020730000000     -0.107278170000000
C       6.124775800000000      3.517478460000000      0.749041380000000
Si      6.376157030000000      3.422262010000000      2.547065210000000
C       7.745639920000000      4.252256500000000      3.081801940000000
Si      6.154918500000000      5.359189860000000      0.146704460000000
C       7.681541640000000      6.223283600000000      0.895803860000000
Si      7.538455350000000      6.053505280000000      2.667489350000000
C       9.108188060000000      7.049083560000000      3.333130990000000
Si      6.221199090000000     -0.092279600000000     -0.066448350000000
C       7.735001400000000      0.871987630000000      0.722787710000000
Si      7.795156670000000      0.820992510000000      2.550019750000000
C       9.400705889999999      1.817864360000000      3.243456790000000
Si      7.816771820000000      2.691500000000000      0.072873580000000
C       9.333881470000000      3.592430990000000      0.602997970000000
Si      9.428120829999999      3.590566590000000      2.412826260000000
C      10.925596400000000      4.635927930000000      3.198959250000000
Si      9.196368200000000      5.349393240000000     -0.080511330000000
C      10.785839700000000      6.247628860000000      0.572990920000000
Si     10.647270310000000      6.442810310000000      2.480596310000000
C      12.296667190000001      7.143965390000000      3.126357960000000
36

Si     -0.044813740000000     -0.071574630000000      0.011622760000000
C       1.456101980000000      0.963580580000000      0.615671380000000
Si      1.595204430000000      0.907688390000000      2.456205970000000
C       3.059119230000000      1.808526040000000      3.151885030000000
Si      1.473865400000000      2.685995520000000      0.011988780000000
C       3.125443000000000      3.592896970000000      0.582964070000000
Si      3.133545240000000      3.540325040000000      2.524283920000000
C       4.598254170000000      4.423230010000000      3.209381210000000
Si      3.061371170000000      5.346681370000000     -0.063774020000000
C       4.667887700000000      6.188222580000000      0.684259780000000
Si      4.726504840000000      6.217755570000000      2.531164830000000
C       6.213354670000000      7.224939950000000      3.142750420000000
Si      3.094509400000000      0.083252320000000     -0.043360360000000
C       4.622609110000000      0.935710810000000      0.690227970000000
Si      4.583704310000000      0.782144360000000      2.595119570000000
C       6.076100850000000      1.872969000000000      3.198815210000000
Si      4.623466190000000      2.718512290000000     -0.015776740000000
C       6.220231190000000      3.544648410000000      0.667118360000000
Si      6.202588890000000      3.634219700000000      2.604942890000000
C       7.742011360000000      4.594146300000000      3.208271590000000
Si      6.228821710000000      5.349050920000000      0.136525790000000
C       7.729923130000000      6.291348860000000      0.613329670000000
Si      7.763763260000000      6.262739250000000      2.462861940000000
C       9.330231480000000      7.095898080000000      3.282179550000000
Si      6.095133780000000     -0.044134560000000      0.011221660000000
C       7.702755290000000      0.872977490000000      0.530728770000000
Si      7.743530110000000      0.890672940000000      2.515836810000000
C       9.270472310000001      1.718210150000000      3.236485400000000
Si      7.778707230000000      2.578401320000000     -0.040661720000000
C       9.243686860000000      3.606471000000000      0.682396330000000
Si      9.290128030000000      3.632723960000000      2.555608930000000
C      10.853711190000000      4.519938730000000      3.169117980000000
Si      9.332699130000000      5.403045620000000      0.036573790000000
C      10.900872990000000      6.247996980000000      0.747812100000000
Si     10.968174030000000      6.315004070000000      2.635484870000000
C      12.480071870000000      7.178167150000000      3.157247870000000
36

Si      0.038394970000000      0.091318800000000      0.087905620000000
C       1.607550940000000      0.857071670000000      0.720876970000000
Si      1.491657120000000      0.824074710000000      2.569350240000000
C       3.007865030000000      1.841788420000000      3.215013710000000
Si      1.639759440000000      2.626886400000000     -0.015684890000000
C       3.080536590000000      3.571231610000000      0.665550980000000
Si      3.034990250000000      3.560908900000000      2.568365990000000
C       4.639793260000000      4.468235030000000      3.230683660000000
Si      3.160245480000000      5.333700020000000      0.104516920000000
C       4.655781550000000      6.233914750000000      0.690964590000000
Si      4.774412240000000      6.234033500000000      2.603140230000000
C       6.263302010000000      7.110290790000000      3.310235190000000
Si      3.099584910000000      0.000926250000000      0.044444620000000
C       4.642263270000000      1.029043990000000      0.615341940000000
Si      4.587953760000000      0.996064440000000      2.473525290000000
C       6.143977630000000      1.844687780000000      3.213132160000000
Si      4.625830780000000      2.758688470000000     -0.056452900000000
C       6.165135820000000      3.572585650000000      0.728838540000000
Si      6.140728820000000      3.617958860000000      2.533884270000000
C       7.738743070000000      4.442208610000000      3.093425620000000
Si      6.177826120000000      5.376608710000000     -0.072859630000000
C       7.788510200000000      6.289213280000000      0.606761650000000
Si      7.740665610000000      6.254197660000000      2.512657970000000
C       9.279206280000000      7.181199440000000      3.139050960000000
Si      6.201303350000000      0.046114890000000      0.010974120000000
C       7.638917510000000      0.876576010000000      0.677906170000000
Si      7.648929720000000      0.871759030000000      2.599392630000000
C       9.284971920000000      1.839392700000000      3.164809510000000
Si      7.740182890000000      2.698299380000000     -0.007342220000000
C       9.301628709999999      3.496821670000000      0.620012100000000
Si      9.297078500000000      3.466252910000000      2.431604520000000
C      10.838605690000000      4.514405600000000      3.187958810000000
Si      9.334647000000000      5.296866660000000     -0.003222590000000
C      10.881723140000000      6.254037670000000      0.646660550000000
Si     10.858932390000000      6.251685460000000      2.524934930000000
C      12.469433690000001      7.084509490000000      3.082550280000000
36

Si      0.054274400000000     -0.060917210000000     -0.000719870000000
C       1.556170040000000      0.882336990000000      0.633496700000000
Si      1.673189750000000      0.947080740000000      2.531666160000000
C       3.236377130000000      1.772310180000000      3.191306630000000
Si      1.548203990000000      2.743820010000000     -0.091455150000000
C       3.017665500000000      3.577599040000000      0.674310880000000
Si      3.114486510000000      3.501018760000000      2.569762120000000
C       4.624586990000000      4.497516300000000      3.160871990000000
Si      3.010915780000000      5.428995450000000      0.054397650000000
C       4.570633500000000      6.240335710000000      0.577963820000000
Si      4.659140350000000      6.319466550000000      2.444814910000000
C       6.186526340000000      7.246298630000000      3.201409830000000
Si      3.102664820000000     -0.033606510000000      0.059177210000000
C       4.643653490000000      0.880173830000000      0.683993240000000
Si      4.715772640000000      0.849415130000000      2.537427020000000
C       6.215325790000000      1.750619440000000      3.274535070000000
Si      4.664930090000000      2.663340970000000     -0.009518910000000
C       6.190077610000000      3.569359420000000      0.786512270000000
Si      6.197288260000000      3.617365850000000      2.601528430000000
C       7.806201250000000      4.466344760000000      3.114073050000000
Si      6.068468130000000      5.300616190000000     -0.035952590000000
C       7.634561540000000      6.295630020000000      0.632497530000000
Si      7.708619780000000      6.200472960000000      2.503352460000000
C       9.259036790000000      7.099995860000000      3.196053370000000
Si      6.307357510000000     -0.015399430000000     -0.038145220000000
C       7.733161770000000      0.786902830000000      0.694404480000000
Si      7.765924200000000      0.852106360000000      2.549061690000000
C       9.364636930000000      1.832746790000000      3.058764400000000
Si      7.697927800000000      2.673270490000000      0.099786540000000
C       9.190825620000000      3.627996570000000      0.695381300000000
Si      9.402213509999999      3.579575770000000      2.503532540000000
C      10.880369829999999      4.570611800000000      3.261417480000000
Si      9.158655460000000      5.427445490000000      0.030647770000000
C      10.691386950000000      6.288097360000000      0.653218940000000
Si     10.836087969999999      6.289056920000000      2.581275120000000
C      12.409291619999999      7.176635610000000      3.162814670000000
36

Si     -0.116372540000000     -0.105143510000000     -0.164861100000000
C       1.510214130000000      0.910977640000000      0.604449460000000
Si      1.546302010000000      0.808902380000000      2.514596520000000
C       3.096587860000000      1.882971710000000      3.136498820000000
Si      1.651874100000000      2.668973790000000      0.118399480000000
C       3.209613490000000      3.558563420000000      0.685608640000000
Si      3.220402010000000      3.773787060000000      2.542012440000000
C       4.598748580000000      4.513138300000000      3.194080300000000
Si      2.988496320000000      5.343891330000000     -0.018707390000000
C       4.382589840000000      6.281178190000000      0.584470700000000
Si      4.524442050000000      6.165705410000000      2.415183020000000
C       6.164475440000000      7.181777310000000      3.271240070000000
Si      3.055350600000000     -0.034228860000000     -0.168116310000000
C       4.496457700000000      0.761136180000000      0.498588600000000
Si      4.640465110000000      0.722409790000000      2.322229680000000
C       6.310663330000000      1.830126510000000      2.965490300000000
Si      4.647680090000000      2.627040810000000     -0.028621840000000
C       6.372172840000000      3.659303110000000      0.650819530000000
Si      6.298903780000000      3.577500920000000      2.520165020000000
C       7.792019990000000      4.648051380000000      3.260964770000000
Si      6.317327330000000      5.426260350000000      0.095041970000000
C       7.763960070000000      6.362632860000000      0.644676350000000
Si      7.685593670000000      6.312378000000000      2.621085940000000
C       9.207065670000000      7.086202990000000      3.102504750000000
Si      6.142311260000000      0.065365320000000      0.089745000000000
C       7.739677490000000      1.022353350000000      0.663642570000000
Si      7.874464920000000      0.919692430000000      2.559051730000000
C       9.399516410000000      1.720862480000000      3.175739670000000
Si      7.756498990000000      2.824188030000000      0.100721730000000
C       9.395140850000001      3.635675750000000      0.819816740000000
Si      9.336105990000000      3.525771940000000      2.763227670000000
C      10.755471500000001      4.382903080000000      3.284259450000000
Si      9.294156520000000      5.404103880000000      0.067706060000000
C      10.769854340000000      6.264760070000000      0.727114730000000
Si     10.782690049999999      6.129652470000000      2.606983690000000
C      12.338455840000000      7.155565670000000      3.230589530000000
36

Si     -0.189465620000000     -0.136040340000000      0.020101750000000
C       1.520006430000000      0.667668100000000      0.694698940000000
Si      1.629265560000000      0.892483260000000      2.504398270000000
C       3.062020010000000      1.814199140000000      3.217660590000000
Si      1.423443580000000      2.600646260000000      0.009900850000000
C       2.895445500000000      3.671066080000000      0.674682250000000
Si      2.844131040000000      3.488984640000000      2.492225710000000
C       4.527489810000000      4.419169890000000      3.073650890000000
Si      3.160541370000000      5.372813530000000      0.056631920000000
C       4.645023990000000      6.138130790000000      0.654412090000000
Si      4.652467150000000      6.191613450000000      2.493111750000000
C       6.205963880000000      7.123719370000000      3.181125280000000
Si      3.157726880000000      0.119868470000000      0.078213470000000
C       4.728740990000000      1.092765830000000      0.880590260000000
Si      4.865903150000000      1.036670900000000      2.673025820000000
C       6.282309260000000      1.963942780000000      3.305427960000000
Si      4.556934830000000      2.707522630000000      0.025913910000000
C       6.127608470000000      3.598496730000000      0.517813340000000
Si      6.142583390000000      3.736018950000000      2.462983970000000
C       7.896024940000000      4.504405510000000      3.267715240000000
Si      6.367715920000000      5.366553800000000     -0.140118290000000
C       7.795033640000000      6.286330540000000      0.645449490000000
Si      7.689129850000000      6.230585720000000      2.565293860000000
C       9.336741870000001      7.243088640000000      3.154125330000000
Si      6.170349330000000     -0.051404730000000     -0.046442980000000
C       7.725095660000000      0.806373350000000      0.757499240000000
Si      7.822323520000000      0.790741130000000      2.599901680000000
C       9.274411680000000      1.781452810000000      3.249618530000000
Si      7.765152830000000      2.810623330000000     -0.028361020000000
C       9.328562780000000      3.548903210000000      0.674625040000000
Si      9.225309250000000      3.497666730000000      2.560621090000000
C      10.741468930000000      4.465482920000000      3.116582630000000
Si      9.417107890000000      5.314039650000000     -0.060286700000000
C      10.874952199999999      6.379687940000000      0.619834970000000
Si     10.861415140000000      6.267151520000000      2.510283990000000
C      12.533740509999999      7.165559290000000      3.232301660000000
36

Si     -0.024701520000000     -0.007170860000000     -0.050765150000000
C       1.516524270000000      0.912644910000000      0.533193160000000
Si      1.502374570000000      0.910026920000000      2.412415620000000
C       3.067527330000000      1.741262330000000      3.062329040000000
Si      1.560688530000000      2.782412620000000     -0.053459880000000
C       3.101952750000000      3.597933680000000      0.628935810000000
Si      3.100286760000000      3.492991420000000      2.548982440000000
C       4.616442570000000      4.498308610000000      3.181817560000000
Si      3.016698820000000      5.338368080000000      0.035531300000000
C       4.589499480000000      6.186112660000000      0.485735180000000
Si      4.673800260000000      6.238699660000000      2.482187700000000
C       6.146466160000000      7.163607000000000      3.179256530000000
Si      3.097013790000000     -0.026417270000000      0.069045030000000
C       4.637149710000000      0.979092510000000      0.587075690000000
Si      4.682546560000000      0.931444430000000      2.461202630000000
C       6.129523470000000      1.774078500000000      3.205126460000000
Si      4.643717940000000      2.659066260000000      0.013717380000000
C       6.203620380000000      3.558356100000000      0.684591360000000
Si      6.168849180000000      3.615896230000000      2.634540390000000
C       7.782203780000000      4.509203650000000      3.190758030000000
Si      6.209869990000000      5.336603930000000      0.085523160000000
C       7.739793860000000      6.283954040000000      0.746260800000000
Si      7.745613350000000      6.258265790000000      2.650835370000000
C       9.375419330000000      7.103809470000000      3.320603910000000
Si      6.239584670000000      0.018576150000000     -0.036848200000000
C       7.758530990000000      0.857123100000000      0.660960710000000
Si      7.694502620000000      0.862392460000000      2.538340090000000
C       9.306919360000000      1.819702480000000      3.142186070000000
Si      7.776748270000000      2.654602570000000      0.083960630000000
C       9.223445340000000      3.579800890000000      0.721420930000000
Si      9.306343780000001      3.624136730000000      2.539983790000000
C      10.947600840000000      4.499208000000000      3.195702110000000
Si      9.258445289999999      5.422448610000000      0.043015350000000
C      10.858884540000000      6.280193710000000      0.641629000000000
Si     10.924243390000001      6.222831430000000      2.593778540000000
C      12.465017540000000      7.095408640000000      3.108160230000000
36

Si     -0.040511880000000     -0.011302560000000      0.068190460000000
C       1.697085430000000      0.823614210000000      0.718958480000000
Si      1.530202880000000      0.980648080000000      2.563558430000000
C       3.129329760000000      1.866384740000000      3.152932780000000
Si      1.544198550000000      2.567062760000000     -0.020444050000000
C       3.111685980000000      3.756395430000000      0.529097730000000
Si      3.146163270000000      3.699914210000000      2.358082300000000
C       4.752367060000000      4.307577060000000      3.071869650000000
Si      2.999250560000000      5.582994260000000      0.055805260000000
C       4.691873760000000      6.223114780000000      0.671211930000000
Si      4.680356770000000      6.353362340000000      2.671226730000000
C       6.197831030000000      7.137352700000000      3.267218080000000
Si      3.274562220000000      0.032213320000000      0.031708140000000
C       4.680858550000000      0.821974980000000      0.679203230000000
Si      4.652030920000000      0.809026150000000      2.643645260000000
C       6.140238860000000      1.775422530000000      3.157624570000000
Si      4.550515570000000      2.653904620000000     -0.131977020000000
C       6.203389340000000      3.483263540000000      0.519148230000000
Si      6.164939070000000      3.500941230000000      2.464375340000000
C       7.785937440000000      4.238556110000000      3.262549700000000
Si      6.117679340000000      5.299733170000000      0.189110730000000
C       7.680933880000000      6.058287530000000      0.698662870000000
Si      7.736771130000000      6.194688840000000      2.595530000000000
C       9.230838560000000      7.070420080000000      3.229051890000000
Si      6.282453350000000      0.019856190000000      0.098602130000000
C       7.685394110000000      0.940584060000000      0.687247190000000
Si      7.784345530000000      1.026617870000000      2.611365600000000
C       9.391190210000000      2.004376300000000      3.303139110000000
Si      7.717099780000000      2.706324400000000     -0.064054870000000
C       9.269094530000000      3.436866490000000      0.586080010000000
Si      9.464852700000000      3.652412110000000      2.507906640000000
C      10.862302270000001      4.583607780000000      3.083760420000000
Si      9.247424160000000      5.281973250000000     -0.012903120000000
C      10.603318840000000      6.294425080000000      0.427046930000000
Si     10.719178270000000      6.247569410000000      2.500656610000000
C      12.364810390000001      7.003150750000000      3.047619620000000
36

Si      0.040985610000000      0.076236130000000      0.054636930000000
C       1.763076540000000      0.748237050000000      0.715666080000000
Si      1.648942730000000      1.055332650000000      2.628101640000000
C       3.194668090000000      1.855951910000000      3.303241550000000
Si      1.518333860000000      2.704327630000000     -0.076361930000000
C       3.033770690000000      3.554502520000000      0.598726230000000
Si      3.307033420000000      3.600593760000000      2.410874440000000
C       4.831958950000000      4.588700850000000      3.140651360000000
Si      3.055505060000000      5.413970430000000      0.043642240000000
C       4.637072950000000      6.318414930000000      0.689522360000000
Si      4.688395080000000      6.440739530000000      2.610560490000000
C       6.054976850000000      7.449749290000000      3.195955990000000
Si      3.163866430000000     -0.115369000000000      0.122035530000000
C       4.797228280000000      0.854274000000000      0.630456450000000
Si      4.677196060000000      0.848292850000000      2.564465920000000
C       6.275642610000000      1.672736090000000      3.330715300000000
Si      4.593756690000000      2.687725850000000      0.030196870000000
C       6.104642270000000      3.480845490000000      0.535990560000000
Si      6.462388320000000      3.547666930000000      2.486812840000000
C       7.934662670000000      4.463353050000000      3.308743140000000
Si      5.902421680000000      5.304553520000000     -0.001495750000000
C       7.641365230000000      6.027197100000000      0.591192710000000
Si      7.488509440000000      6.040183440000000      2.480788980000000
C       9.067657530000000      7.146644490000000      3.128607690000000
Si      6.207762140000000     -0.013230930000000     -0.033724220000000
C       7.716261900000000      0.863019730000000      0.676463960000000
Si      7.786051220000000      0.994036000000000      2.627111400000000
C       9.423767470000000      1.917967270000000      3.162313020000000
Si      7.708978310000000      2.596357620000000      0.006810220000000
C       9.204627100000000      3.508679460000000      0.570113780000000
Si      9.368585380000001      3.720141790000000      2.484204350000000
C      10.881906890000000      4.472582760000000      3.119960390000000
Si      9.166364039999999      5.190232860000000     -0.078565400000000
C      10.771516240000000      6.258300790000000      0.571528150000000
Si     10.689055910000000      6.274936990000000      2.641291490000000
C      12.371384770000001      7.184862920000000      3.124212880000000
36

Si      0.332966350000000     -0.205969630000000     -0.122480160000000
C       1.592648720000000      0.872915330000000      0.652960650000000
Si      1.461347300000000      0.957882750000000      2.447292480000000
C       2.947155670000000      1.995032350000000      3.152405730000000
Si      1.400284290000000      2.632286530000000      0.019420150000000
C       3.041176650000000      3.490209410000000      0.589694350000000
Si      3.033977900000000      3.766551690000000      2.442154970000000
C       4.667906850000000      4.433684490000000      3.187766060000000
Si      3.027765220000000      5.320660240000000     -0.256171860000000
C       4.763699030000000      6.141329560000000      0.414712770000000
Si      4.405977190000000      6.267969930000000      2.176517970000000
C       6.167812140000000      6.998112980000000      2.961538100000000
Si      3.106846340000000     -0.044107410000000      0.073437230000000
C       4.908954370000000      0.802063620000000      0.644787580000000
Si      4.491107830000000      0.931729070000000      2.533384200000000
C       6.195961840000000      1.796115160000000      3.335902570000000
Si      4.476988660000000      2.478706840000000      0.264122370000000
C       5.999621200000000      3.534137360000000      0.852587840000000
Si      6.185210510000000      3.592702260000000      2.664039310000000
C       7.806561920000000      4.482325500000000      3.586538380000000
Si      6.296852050000000      5.178120880000000     -0.099439200000000
C       7.739713680000000      5.921665260000000      0.652801990000000
Si      7.708088600000000      6.256284200000000      2.506293690000000
C       9.208340189999999      7.212316870000000      2.951357050000000
Si      6.456664880000000      0.096331070000000      0.053126100000000
C       7.850009650000000      0.813347620000000      0.652642590000000
Si      7.678425780000000      1.292457830000000      2.556186800000000
C       9.303620940000000      1.770745050000000      3.289154930000000
Si      7.851608530000000      2.739771530000000      0.167444110000000
C       9.353346480000001      3.768686550000000      0.856997360000000
Si      9.146863600000000      3.652604670000000      2.753500150000000
C      10.817889230000000      4.586904520000000      3.293279500000000
Si      9.541785890000000      5.447229870000000     -0.038756320000000
C      11.052373279999999      6.285788990000000      0.717094260000000
Si     10.794228009999999      6.157805240000000      2.611375020000000
C      12.469778549999999      7.104538280000000      3.186276140000000
36

Si     -0.104566300000000      0.183388880000000     -0.229288260000000
C       1.635282860000000      0.829230980000000      0.638785000000000
Si      1.575105090000000      0.505836160000000      2.487819830000000
C       3.112034680000000      1.676927310000000      3.093576160000000
Si      1.500937490000000      2.881070980000000     -0.096724290000000
C       2.978289510000000      3.637132890000000      0.661188370000000
Si      3.186914340000000      3.422974630000000      2.376001110000000
C       4.534537240000000      4.575960080000000      3.236373270000000
Si      3.000473020000000      5.666447650000000     -0.142294680000000
C       4.565909390000000      6.484185150000000      0.545740100000000
Si      4.581562310000000      6.194434990000000      2.474091250000000
C       6.198919740000000      6.999744730000000      3.138954790000000
Si      3.031423550000000      0.004923070000000     -0.049792380000000
C       4.421017850000000      0.830927010000000      0.664357880000000
Si      4.711259680000000      0.891412510000000      2.573061500000000
C       6.265833190000000      1.576495370000000      3.153210280000000
Si      4.570466880000000      2.693154450000000      0.070952460000000
C       6.023018660000000      3.539075070000000      0.601770760000000
Si      6.059153120000000      3.616130740000000      2.661596350000000
C       7.710188840000000      4.532068770000000      3.178768390000000
Si      6.077777670000000      5.310326240000000      0.043916690000000
C       7.936394450000000      6.354667120000000      0.534997910000000
Si      7.898404390000000      6.320472360000000      2.441277460000000
C       9.401108580000001      6.918895150000000      3.125081010000000
Si      5.964119910000000      0.042308780000000     -0.039161650000000
C       7.611868620000000      0.904014320000000      0.693584880000000
Si      7.800025730000000      0.806143900000000      2.602537740000000
C       9.468028540000001      1.881282950000000      3.207090380000000
Si      7.752303810000000      2.792882200000000      0.356215920000000
C       9.300499430000000      3.598612030000000      0.851906500000000
Si      9.599560060000000      3.668141060000000      2.895073280000000
C      11.012000880000000      4.509519590000000      3.418849060000000
Si      9.346143540000000      5.306034320000000      0.103077990000000
C      10.811056590000000      6.360133610000000      0.609953580000000
Si     11.022149190000000      6.097901350000000      2.447498170000000
C      12.488512840000000      7.070030770000000      3.099564810000000
36

Si      0.000530160000000      0.029007530000000      0.025431550000000
C       1.627674560000000      0.911511190000000      0.773501930000000
Si      1.581453140000000      0.869602940000000      2.681228330000000
C       2.989736500000000      1.851606540000000      3.300555880000000
Si      1.572770540000000      2.477085250000000     -0.083845970000000
C       3.050694130000000      3.514501250000000      0.503111110000000
Si      2.845545100000000      3.593005670000000      2.395362060000000
C       4.474017480000000      4.434486140000000      3.129684990000000
Si      3.067075900000000      5.566479940000000      0.064032830000000
C       4.593126320000000      6.358841760000000      0.773467120000000
Si      4.796059790000000      6.231136560000000      2.557564090000000
C       6.381933040000000      7.285153160000000      3.265589010000000
Si      3.161172200000000     -0.125899710000000      0.150620660000000
C       4.770943440000000      0.778510340000000      0.836940740000000
Si      4.548018310000000      0.993605760000000      2.638875870000000
C       6.327318040000000      1.794836300000000      3.356544140000000
Si      4.622117300000000      2.642690090000000     -0.029419740000000
C       6.140138230000000      3.473203170000000      0.577106820000000
Si      6.228127830000000      3.509417990000000      2.439061890000000
C       7.689093080000000      4.627145850000000      2.923279030000000
Si      6.192985940000000      5.306438410000000      0.003459620000000
C       7.754529480000000      6.277561480000000      0.694908470000000
Si      7.897419090000000      6.297863420000000      2.586134970000000
C       9.356608560000000      7.217879790000000      3.288952640000000
Si      6.278222580000000      0.027255560000000      0.013648690000000
C       7.876013950000000      0.960220620000000      0.716999060000000
Si      7.851724090000000      0.943492170000000      2.569244520000000
C       9.176747150000001      1.851258490000000      3.240388520000000
Si      7.756783750000000      2.649050020000000     -0.140766390000000
C       9.398789349999999      3.554811220000000      0.594515520000000
Si      9.192044470000001      3.591608610000000      2.527637760000000
C      10.776549920000001      4.461231810000000      3.111047480000000
Si      9.129837880000000      5.208305360000000     -0.138104980000000
C      10.852741090000000      6.301444530000000      0.766362540000000
Si     10.789036039999999      6.326100950000000      2.473533970000000
C      12.383499750000000      7.250754430000000      3.167041540000000
36

Si      0.070876510000000      0.089086970000000      0.043631770000000
C       1.575312690000000      0.937633760000000      0.716529700000000
Si      1.581414010000000      0.772604810000000      2.554427840000000
C       3.120852840000000      1.754802450000000      3.191430200000000
Si      1.627055010000000      2.714123400000000      0.057895360000000
C       3.146732490000000      3.682053730000000      0.761597030000000
Si      3.145796970000000      3.582058710000000      2.573047090000000
C       4.634193530000000      4.513145770000000      3.200718330000000
Si      3.150072680000000      5.373104340000000      0.067251710000000
C       4.603756970000000      6.362713760000000      0.633214230000000
Si      4.595795500000000      6.232525150000000      2.512509480000000
C       6.181069660000000      7.012628090000000      3.270954790000000
Si      3.123102530000000     -0.006252750000000      0.085591290000000
C       4.674631330000000      0.993174240000000      0.684723050000000
Si      4.690195490000000      0.958990060000000      2.548277310000000
C       6.176417190000000      1.805984530000000      3.187556420000000
Si      4.587270240000000      2.664078070000000     -0.040722450000000
C       6.135891190000000      3.585001800000000      0.587494870000000
Si      6.128013730000000      3.579293890000000      2.459972250000000
C       7.651859170000000      4.461640050000000      3.178651130000000
Si      6.171749130000000      5.354674650000000     -0.100026100000000
C       7.723740950000000      6.262635200000000      0.736060930000000
Si      7.704772860000000      6.251052140000000      2.579650300000000
C       9.249565970000001      7.206403570000000      3.105277970000000
Si      6.282969910000000      0.038499010000000     -0.001111570000000
C       7.762053910000000      0.988502300000000      0.673360140000000
Si      7.714238320000000      0.836547460000000      2.579597870000000
C       9.256188590000001      1.796768680000000      3.140900380000000
Si      7.785886060000000      2.766627890000000     -0.091132880000000
C       9.330685109999999      3.594936830000000      0.664479800000000
Si      9.297836999999999      3.448122500000000      2.606931180000000
C      10.870739770000000      4.426856820000000      3.138712810000000
Si      9.317163890000000      5.351831220000000     -0.034183070000000
C      10.840423860000000      6.346781480000000      0.570251070000000
Si     10.720086770000000      6.160419970000000      2.493197300000000
C      12.257256210000000      7.100477590000000      3.201369610000000
36

Si      0.172201870000000     -0.122326110000000     -0.031155400000000
C       1.665679280000000      0.964366270000000      0.603841810000000
Si      1.414514280000000      0.795188550000000      2.510924960000000
C       2.962455940000000      1.858017340000000      3.101356510000000
Si      1.564415950000000      2.716514430000000      0.007113570000000
C       3.084679160000000      3.653009330000000      0.680942870000000
Si      3.229686730000000      3.657215570000000      2.619864510000000
C       4.708962490000000      4.561377730000000      3.270092950000000
Si      2.998230080000000      5.217174300000000      0.014777010000000
C       4.565595920000000      6.154673610000000      0.558902930000000
Si      4.621751500000000      6.309027060000000      2.513051110000000
C       6.094330140000000      7.128267730000000      3.041120950000000
Si      3.193303230000000     -0.028337490000000     -0.162883120000000
C       4.700261340000000      0.894858970000000      0.429760580000000
Si      4.403803000000000      0.886859810000000      2.278294960000000
C       6.032937580000000      1.593107750000000      3.101517880000000
Si      4.665299620000000      2.848807260000000      0.088415620000000
C       6.225377520000000      3.668554350000000      0.744803420000000
Si      6.191007130000000      3.418484950000000      2.677080490000000
C       7.574459400000000      4.372916570000000      3.363433470000000
Si      6.200452690000000      5.353350490000000      0.036615910000000
C       7.707218440000000      6.200861810000000      0.556961330000000
Si      7.714520970000000      6.212117040000000      2.616020040000000
C       9.136135039999999      7.161759980000000      3.147186130000000
Si      6.221381550000000      0.003982650000000     -0.045501780000000
C       7.738894320000000      0.831287150000000      0.482082600000000
Si      7.712961310000000      0.884636030000000      2.521888690000000
C       9.314255259999999      1.902485760000000      3.080056290000000
Si      7.791646510000000      2.735170290000000      0.213168580000000
C       9.458464790000001      3.569192620000000      0.670232370000000
Si      9.449055209999999      3.649139840000000      2.650798410000000
C      10.878166269999999      4.718721880000000      3.251590670000000
Si      9.377447699999999      5.389969410000000      0.132868180000000
C      10.970955490000000      6.264682560000000      0.669358690000000
Si     10.696401420000001      6.302915600000000      2.556788500000000
C      12.550759729999999      7.187849460000000      3.180770260000000
36

Si      0.056456650000000     -0.041507990000000      0.071642290000000
C       1.576445850000000      1.014086170000000      0.661882040000000
Si      1.582363440000000      0.947222070000000      2.498347110000000
C       3.182488080000000      1.691821410000000      3.171085260000000
Si      1.530685760000000      2.738365570000000      0.076779860000000
C       3.095431520000000      3.586720230000000      0.646508130000000
Si      3.165699520000000      3.536382830000000      2.509102190000000
C       4.659890190000000      4.432193110000000      3.196292490000000
Si      3.084131440000000      5.417876250000000      0.012269970000000
C       4.639352630000000      6.299866790000000      0.724297260000000
Si      4.602810540000000      6.258844060000000      2.603978900000000
C       6.182474980000000      7.254560840000000      3.236453280000000
Si      3.191356930000000      0.029677830000000     -0.027330730000000
C       4.696757490000000      0.880823980000000      0.721238540000000
Si      4.605480940000000      0.822453510000000      2.557374240000000
C       6.216635830000000      1.750286880000000      3.140963280000000
Si      4.704200970000000      2.631088490000000     -0.038059250000000
C       6.254375770000000      3.579245470000000      0.651241800000000
Si      6.179109990000000      3.565113370000000      2.542837040000000
C       7.704757140000000      4.503490640000000      3.118834030000000
Si      6.188033360000000      5.381445360000000     -0.007737890000000
C       7.606687130000000      6.286924620000000      0.541776500000000
Si      7.615039200000000      6.267125550000000      2.486281620000000
C       9.189611879999999      7.035625930000000      3.208435250000000
Si      6.251784860000000     -0.021488100000000      0.096606090000000
C       7.788524460000000      0.837895080000000      0.671751730000000
Si      7.850042780000000      0.875687820000000      2.538212660000000
C       9.387678660000001      1.831688110000000      3.264582970000000
Si      7.800670470000000      2.659995280000000     -0.049590040000000
C       9.309665989999999      3.658410450000000      0.599170370000000
Si      9.244379889999999      3.613710100000000      2.606337320000000
C      10.799580410000001      4.437961240000000      3.234246220000000
Si      9.216915849999999      5.416582990000000     -0.032864680000000
C      10.805522910000001      6.269190820000000      0.644800520000000
Si     10.735001779999999      6.206214730000000      2.464144980000000
C      12.306248099999999      7.160059230000000      3.178092370000000
36

Si     -0.139020670000000     -0.006335310000000     -0.323641670000000
C       1.405254690000000      0.887748940000000      0.342433990000000
Si      1.237889520000000      0.758511340000000      2.208906870000000
C       2.919310130000000      1.575154320000000      2.874926610000000
Si      1.675428110000000      2.764667400000000     -0.163512710000000
C       3.062967600000000      3.779451100000000      0.647396270000000
Si      2.973166060000000      3.459051360000000      2.526794970000000
C       4.461047430000000      4.483469700000000      3.068251250000000
Si      3.207231400000000      5.505923340000000     -0.227597200000000
C       4.606867640000000      6.194543300000000      0.517499580000000
Si      4.516558710000000      6.215402760000000      2.507030040000000
C       5.952789940000000      7.172851800000000      3.025354120000000
Si      2.990495630000000     -0.101213110000000     -0.063287810000000
C       4.445381370000000      1.071891720000000      0.829783340000000
Si      4.563654490000000      0.769711830000000      2.615505180000000
C       6.163777190000000      1.844919090000000      3.085212810000000
Si      4.776599060000000      2.922558630000000      0.246335780000000
C       6.559574210000000      3.524317000000000      0.896305270000000
Si      6.234455430000000      3.578891070000000      2.786984060000000
C       7.721333230000000      4.540377920000000      3.133007260000000
Si      6.414862340000000      5.198690650000000      0.129266970000000
C       7.897943980000000      6.367363550000000      0.641136130000000
Si      7.784110710000000      6.205430020000000      2.366437650000000
C       9.134508360000000      7.089739600000000      3.308761210000000
Si      5.910368130000000      0.079768260000000      0.181935000000000
C       7.710264480000000      0.873537820000000      0.805345470000000
Si      7.784631930000000      0.792955540000000      2.626173970000000
C       9.139315710000000      1.911623800000000      3.263870750000000
Si      7.908731010000000      2.751926890000000      0.165119400000000
C       9.442776690000001      3.427403990000000      0.672212450000000
Si      9.503448190000000      3.652556230000000      2.733055720000000
C      10.865693660000000      4.488306780000000      3.318246600000000
Si      9.512504699999999      5.209513810000000      0.164574310000000
C      10.834456490000001      6.413188740000000      0.631344420000000
Si     11.039826020000000      6.369093620000000      2.592785130000000
C      12.398939450000000      7.280446260000000      3.165832270000000
36

Si     -0.091189130000000      0.031076690000000     -0.023840020000000
C       1.396212530000000      0.986733440000000      0.508544430000000
Si      1.275766930000000      0.821596760000000      2.507900620000000
C       3.013734120000000      1.722960420000000      3.089039790000000
Si      1.462667270000000      2.821754790000000      0.062421300000000
C       3.248277730000000      3.235952290000000      0.709510030000000
Si      3.072548150000000      3.388086880000000      2.338017420000000
C       4.417146740000000      4.575772980000000      3.107945250000000
Si      3.173945520000000      5.359598110000000      0.000261660000000
C       4.687284660000000      6.323307700000000      0.525336590000000
Si      4.706914960000000      6.125590240000000      2.282986630000000
C       6.274744330000000      7.041295680000000      3.188536140000000
Si      2.977283590000000     -0.076168800000000     -0.162784480000000
C       4.656092240000000      0.676654550000000      0.648512020000000
Si      4.520008050000000      0.865912500000000      2.513438510000000
C       6.168456880000000      1.954026650000000      2.962035020000000
Si      4.952270780000000      2.586807240000000      0.035423020000000
C       6.191653310000000      3.635221160000000      0.836003920000000
Si      6.168855730000000      3.828162750000000      2.876017820000000
C       7.796537710000000      4.527461530000000      3.340308670000000
Si      6.410974650000000      5.253617430000000      0.088927910000000
C       7.840468680000000      6.222090480000000      0.802521610000000
Si      7.800524920000000      6.426888480000000      2.651166460000000
C       9.291591680000000      7.242144560000000      3.008923170000000
Si      6.100637940000000     -0.158371270000000     -0.126304660000000
C       7.730339980000000      0.799760590000000      0.664937030000000
Si      7.687327430000000      1.030665650000000      2.512929330000000
C       8.927746210000000      1.904316210000000      3.247826130000000
Si      7.833231720000000      2.597083120000000      0.245081670000000
C       9.404345859999999      3.545160540000000      0.736058080000000
Si      9.367499179999999      3.837374740000000      2.518913450000000
C      10.719717740000000      4.571466980000000      3.367435590000000
Si      9.442738650000001      5.243299240000000      0.123522880000000
C      10.972774769999999      6.147697410000000      0.451554420000000
Si     10.906916649999999      6.427519870000000      2.513425100000000
C      12.279746270000000      7.151656950000000      3.301642370000000
36

Si      0.014953860000000      0.004387840000000     -0.201855480000000
C       1.501353420000000      0.986310880000000      0.559501240000000
Si      1.610382830000000      0.760803330000000      2.347626850000000
C       3.059785290000000      1.782307750000000      3.104221580000000
Si      1.624147250000000      2.679059750000000      0.078493550000000
C       3.125320140000000      3.617299010000000      0.758743710000000
Si      3.343894960000000      3.583406600000000      2.529481050000000
C       4.803573820000000      4.461422540000000      3.331528770000000
Si      3.037139550000000      5.479826110000000      0.002702960000000
C       4.543372600000000      6.393634170000000      0.766864290000000
Si      4.655834320000000      6.300286290000000      2.548233770000000
C       6.249330530000000      7.197645720000000      3.130112480000000
Si      3.079920830000000     -0.072073860000000     -0.115419040000000
C       4.599655590000000      0.814446870000000      0.690961730000000
Si      4.617288430000000      0.794006850000000      2.413407360000000
C       6.183488600000000      1.762694620000000      3.207487210000000
Si      4.562316630000000      2.787317660000000      0.118019680000000
C       6.243285120000000      3.635050710000000      0.765941690000000
Si      6.182521760000000      3.486129600000000      2.545385710000000
C       7.679215550000000      4.541655700000000      3.008800230000000
Si      6.070059030000000      5.413320430000000      0.015254250000000
C       7.567918720000000      6.334109310000000      0.650195370000000
Si      7.694555610000000      6.186779960000000      2.531298030000000
C       9.278869370000001      7.071161240000000      3.303866520000000
Si      6.170055230000000      0.043133210000000      0.008435510000000
C       7.832295560000000      0.930297320000000      0.663242780000000
Si      7.678895160000000      0.966167030000000      2.568833500000000
C       9.162939200000000      1.775644840000000      3.133158550000000
Si      7.882445350000000      2.724981760000000      0.205953490000000
C       9.372936290000000      3.663769740000000      0.813984080000000
Si      9.444151140000001      3.565413030000000      2.673525860000000
C      11.083707929999999      4.327074220000000      3.368081010000000
Si      9.129774579999999      5.260938430000000     -0.109658100000000
C      10.741202260000000      6.238089160000000      0.585191140000000
Si     10.815894360000000      6.207580580000000      2.571122800000000
C      12.350340360000001      7.289993270000000      3.184796990000000
36

Si     -0.136454810000000     -0.025059060000000     -0.078563380000000
C       1.503636710000000      0.837594300000000      0.575398520000000
Si      1.569990180000000      0.884531620000000      2.463953510000000
C       3.064298030000000      1.863585460000000      3.157963800000000
Si      1.497735120000000      2.629858010000000     -0.033710070000000
C       2.994600630000000      3.504182390000000      0.663022320000000
Si      3.107961630000000      3.647618340000000      2.547745240000000
C       4.680661140000000      4.623102350000000      3.166975050000000
Si      3.072164300000000      5.284636760000000      0.044970460000000
C       4.601110420000000      6.226454040000000      0.560959720000000
Si      4.693742610000000      6.284775340000000      2.470507360000000
C       6.225017930000000      7.093164500000000      3.170616830000000
Si      3.072477640000000     -0.051623830000000      0.068353280000000
C       4.600331890000000      0.940000460000000      0.583033900000000
Si      4.638781830000000      1.012023990000000      2.459864640000000
C       6.195084400000000      1.832142300000000      3.159385440000000
Si      4.664073100000000      2.656327090000000      0.019902370000000
C       6.118255870000000      3.581004680000000      0.745026030000000
Si      6.199666840000000      3.594019790000000      2.557615160000000
C       7.784477870000000      4.414723720000000      3.195408430000000
Si      6.263222790000000      5.305017880000000      0.020367780000000
C       7.792014260000000      6.258748150000000      0.677035880000000
Si      7.827752950000000      6.224328920000000      2.643557530000000
C       9.289303340000000      7.208380570000000      3.226031160000000
Si      6.163486740000000     -0.044681260000000     -0.022330430000000
C       7.598053660000000      0.888882530000000      0.723822620000000
Si      7.694262230000000      0.941647270000000      2.515298360000000
C       9.329701139999999      1.812267540000000      3.106313800000000
Si      7.731573620000000      2.596046570000000     -0.011365130000000
C       9.229251030000000      3.489278350000000      0.676219910000000
Si      9.323464319999999      3.647846240000000      2.557611340000000
C      10.905165800000001      4.528714100000000      3.211357690000000
Si      9.364774369999999      5.320864450000000      0.085824990000000
C      10.837745780000001      6.317035720000000      0.758580540000000
Si     10.938180070000000      6.345971760000000      2.609850290000000
C      12.460061030000000      7.210001730000000      3.228494580000000
36

Si     -0.369319870000000      0.109780070000000     -0.273071690000000
C       1.362608530000000      1.027463760000000      0.292668430000000
Si      1.503140040000000      0.829326490000000      2.459436570000000
C       3.024329240000000      1.717728290000000      3.001753640000000
Si      1.407837590000000      2.739963040000000     -0.098068150000000
C       3.240399940000000      3.822808660000000      0.553892860000000
Si      3.067136700000000      3.406933180000000      2.514254580000000
C       4.864931840000000      4.306090650000000      3.132747470000000
Si      3.155790110000000      5.482144060000000     -0.247910980000000
C       4.739182430000000      6.219046180000000      0.474839080000000
Si      4.457570290000000      6.129061810000000      2.181640950000000
C       6.113643720000000      6.866665710000000      3.087346200000000
Si      2.910165300000000     -0.030579140000000      0.055646740000000
C       4.515245450000000      0.889814990000000      0.602311970000000
Si      4.609830360000000      0.977929390000000      2.350112950000000
C       6.232039780000000      1.578230700000000      3.040618170000000
Si      4.665103610000000      2.779061530000000      0.077019430000000
C       6.224040420000000      3.753524340000000      0.865520120000000
Si      6.359934080000000      3.605259160000000      2.664567270000000
C       7.866237710000000      4.508756260000000      3.127831920000000
Si      6.298269090000000      5.408487300000000      0.121733880000000
C       7.718949360000000      6.335346830000000      0.791740270000000
Si      7.922894740000000      6.165982660000000      2.595821170000000
C       9.335224439999999      7.031270590000000      3.279133240000000
Si      6.000496440000000     -0.121204030000000      0.060301840000000
C       7.721815590000000      1.013810050000000      0.679380290000000
Si      7.776580990000000      0.905311860000000      2.548523330000000
C       9.396495140000001      1.718316840000000      3.338905410000000
Si      7.770380990000000      2.759386970000000      0.283493310000000
C       9.218701870000000      3.739492340000000      0.867535100000000
Si      9.549146439999999      3.750800230000000      2.782247400000000
C      11.163289010000000      4.402933800000000      3.415071110000000
Si      9.154526290000000      5.409037120000000      0.055718070000000
C      11.013886299999999      6.251982310000000      0.800081910000000
Si     11.030368630000000      6.096478230000000      2.792906770000000
C      12.432836220000000      7.097548130000000      3.222764190000000
36

Si      0.118402260000000     -0.045200560000000      0.040513540000000
C       1.567427720000000      0.853388540000000      0.632987050000000
Si      1.501707940000000      1.035739780000000      2.538056850000000
C       3.091487310000000      1.809722110000000      3.103897510000000
Si      1.594000580000000      2.656680740000000     -0.051993720000000
C       3.112706800000000      3.414913610000000      0.459336010000000
Si      3.320163560000000      3.556506900000000      2.576997090000000
C       4.555654640000000      4.718281490000000      3.138727760000000
Si      3.093721400000000      5.364643630000000      0.044635870000000
C       4.679528370000000      6.330375970000000      0.662786390000000
Si      4.655218540000000      6.423262150000000      2.589281940000000
C       6.158351110000000      7.302569990000000      3.125767920000000
Si      3.199180420000000     -0.062803100000000      0.082341170000000
C       4.726723980000000      0.869357220000000      0.651914000000000
Si      4.571641920000000      0.852795710000000      2.733433090000000
C       6.173221800000000      1.751522930000000      3.259284830000000
Si      4.644212090000000      2.612513450000000     -0.087793380000000
C       6.121374650000000      3.501000310000000      0.506426280000000
Si      6.148453130000000      3.394507600000000      2.574876780000000
C       7.765819330000000      4.184837380000000      2.924648120000000
Si      6.154675210000000      5.334218520000000      0.177847190000000
C       7.734462100000000      6.288738530000000      0.616752160000000
Si      7.603218260000000      6.290608370000000      2.534758390000000
C       9.177956999999999      7.058813060000000      3.231256180000000
Si      6.271384260000000      0.000527990000000      0.121307260000000
C       8.019730300000001      0.906636870000000      0.668294780000000
Si      7.753511960000000      1.055203790000000      2.620657180000000
C       9.309991000000000      1.876419740000000      3.214443890000000
Si      7.740469750000000      2.627252130000000     -0.149869460000000
C       9.316036000000000      3.461537860000000      0.552209930000000
Si      9.347265660000000      3.623206570000000      2.454431000000000
C      10.937938900000001      4.435608040000000      3.077865750000000
Si      9.069819839999999      5.261141470000000     -0.031344170000000
C      10.860960609999999      6.372917130000000      0.676264480000000
Si     10.770206170000000      6.332370120000000      2.536581160000000
C      12.202450980000000      7.354602220000000      3.181913470000000
36

Si     -0.031575580000000     -0.032895260000000     -0.026737780000000
C       1.430330920000000      0.932931000000000      0.623192480000000
Si      1.462965540000000      0.861734500000000      2.570218770000000
C       3.050920340000000      1.799407150000000      3.143740130000000
Si      1.512710010000000      2.637311790000000     -0.018618620000000
C       3.109929130000000      3.547552170000000      0.602317770000000
Si      3.064659980000000      3.650967440000000      2.560981570000000
C       4.643924670000000      4.399036910000000      3.147115520000000
Si      3.127935210000000      5.379030960000000     -0.037515640000000
C       4.730945940000000      6.232970000000000      0.658493800000000
Si      4.677468340000000      6.270459600000000      2.467346060000000
C       6.209503930000000      7.135881890000000      3.146715070000000
Si      3.044365720000000      0.107235560000000      0.032506590000000
C       4.626996820000000      0.837295520000000      0.634106580000000
Si      4.598346540000000      0.828231230000000      2.457115100000000
C       6.161584750000000      1.796071220000000      3.165897860000000
Si      4.705999130000000      2.687401880000000      0.062568530000000
C       6.280446930000000      3.537237040000000      0.618666890000000
Si      6.182615910000000      3.579178730000000      2.609099930000000
C       7.724739680000000      4.457224480000000      3.218343940000000
Si      6.354575700000000      5.414596950000000     -0.000261740000000
C       7.846792700000000      6.306999080000000      0.716806710000000
Si      7.760204400000000      6.184556990000000      2.598267750000000
C       9.307157230000000      7.171939130000000      3.103787070000000
Si      6.129086340000000     -0.009935690000000     -0.038132890000000
C       7.735096400000000      0.837566990000000      0.637056140000000
Si      7.709482470000000      0.886654820000000      2.524461630000000
C       9.257509910000000      1.727229860000000      3.190239060000000
Si      7.700792410000000      2.631839640000000     -0.011216220000000
C       9.303407840000000      3.595162520000000      0.624330730000000
Si      9.282546320000000      3.586725650000000      2.498763020000000
C      10.745480080000000      4.532751680000000      3.181268600000000
Si      9.358688969999999      5.413292750000000      0.159784900000000
C      10.884766859999999      6.222402680000000      0.740639640000000
Si     10.914723980000000      6.341744540000000      2.608389930000000
C      12.466173780000000      7.176161510000000      3.204784390000000
36

Si     -0.139699450000000     -0.122643650000000      0.148403180000000
C       1.548472670000000      0.863741470000000      0.826214460000000
Si      1.664982790000000      0.876139460000000      2.566055440000000
C       3.072666150000000      1.913946400000000      3.454884340000000
Si      1.445678110000000      2.616438560000000     -0.095020410000000
C       2.972816550000000      3.571774140000000      0.725840150000000
Si      3.060455600000000      3.655907740000000      2.506726760000000
C       4.659575130000000      4.439928800000000      3.140337180000000
Si      3.148677140000000      5.412693480000000     -0.068445770000000
C       4.765173600000000      6.137282370000000      0.658822740000000
Si      4.555790450000000      6.402369410000000      2.525563690000000
C       6.185549790000000      7.201153140000000      3.211505900000000
Si      3.261689670000000      0.012582560000000      0.105501610000000
C       4.646748310000000      0.851354810000000      0.690963830000000
Si      4.640489880000000      0.859069950000000      2.642249090000000
C       6.305103680000000      1.810786750000000      3.317722500000000
Si      4.500716620000000      2.772812600000000     -0.103168520000000
C       6.221296870000000      3.526722720000000      0.569403350000000
Si      6.224688750000000      3.378152050000000      2.420762780000000
C       7.651283140000000      4.500403670000000      3.051185340000000
Si      6.342130110000000      5.401216320000000      0.090124040000000
C       7.850115470000000      6.159839460000000      0.751661200000000
Si      7.801941790000000      6.244333080000000      2.627813780000000
C       9.314291180000000      7.112446130000000      3.272888400000000
Si      6.177075430000000      0.105842240000000      0.085055660000000
C       7.679344920000000      0.949182800000000      0.666358770000000
Si      7.895330760000000      1.024913170000000      2.620597120000000
C       9.172432230000000      1.933296430000000      3.202490800000000
Si      7.505804440000000      2.633963140000000     -0.181802170000000
C       9.143377530000000      3.460589110000000      0.464358110000000
Si      9.375470990000000      3.549563420000000      2.343856240000000
C      10.822504530000000      4.409223800000000      3.099516120000000
Si      9.493054760000000      5.269174440000000      0.041125480000000
C      10.975434210000000      6.315369230000000      0.557037950000000
Si     10.688555089999999      6.255871490000000      2.483753490000000
C      12.325523790000000      7.251836430000000      3.299291200000000
36

Si     -0.027554740000000      0.043735220000000      0.017044140000000
C       1.557797720000000      0.918986600000000      0.653307690000000
Si      1.591239570000000      0.808631280000000      2.355897760000000
C       2.978662160000000      1.724650800000000      3.034565310000000
Si      1.627061940000000      2.690191860000000      0.032574280000000
C       3.103049220000000      3.604523890000000      0.589748890000000
Si      3.156003450000000      3.620984200000000      2.479185650000000
C       4.599125460000000      4.530360950000000      3.211536760000000
Si      3.006643620000000      5.349300230000000     -0.051057380000000
C       4.547865570000000      6.281342840000000      0.678011000000000
Si      4.531658500000000      6.254697140000000      2.490815330000000
C       6.186970630000000      7.082862500000000      3.119295270000000
Si      3.270042250000000      0.056623890000000     -0.035453560000000
C       4.700422590000000      0.955310790000000      0.649719220000000
Si      4.553892450000000      0.932802360000000      2.575434840000000
C       6.197308520000000      1.812564860000000      3.196101200000000
Si      4.639878990000000      2.689008570000000     -0.002312990000000
C       6.245015150000000      3.565608790000000      0.701708760000000
Si      6.139059850000000      3.525811510000000      2.575641170000000
C       7.651066090000000      4.406911170000000      3.200771410000000
Si      6.194165290000000      5.398531100000000      0.121980810000000
C       7.764009760000000      6.209635700000000      0.734983730000000
Si      7.749915840000000      6.108942480000000      2.542205930000000
C       9.220388650000000      7.153627340000000      3.269961870000000
Si      6.206341340000000      0.041134780000000      0.014832930000000
C       7.743260190000000      0.920923750000000      0.519454850000000
Si      7.790264240000000      0.912745890000000      2.480653900000000
C       9.317379649999999      1.749340970000000      3.154726360000000
Si      7.772064230000000      2.682399280000000     -0.007608470000000
C       9.407969080000001      3.579124930000000      0.707238080000000
Si      9.300679850000000      3.573805080000000      2.654572690000000
C      10.841616950000001      4.531377460000000      3.211417430000000
Si      9.360152220000000      5.334094720000000      0.049791470000000
C      10.854261350000000      6.303922570000000      0.681639560000000
Si     10.806834210000000      6.280257830000000      2.656669080000000
C      12.335890180000000      7.182329260000000      3.198002260000000
36

Si     -0.055850990000000     -0.029456900000000     -0.035017050000000
C       1.541250760000000      0.902444820000000      0.546632320000000
Si      1.447351530000000      0.872861700000000      2.386606960000000
C       2.950892310000000      1.723429610000000      3.097066020000000
Si      1.548409930000000      2.745216430000000     -0.072253600000000
C       3.094757860000000      3.560639930000000      0.603025520000000
Si      3.052265650000000      3.499811860000000      2.490728460000000
C       4.650392190000000      4.508799670000000      3.169326660000000
Si      3.130349310000000      5.343290760000000      0.071872490000000
C       4.704143440000000      6.143795340000000      0.580121170000000
Si      4.703178260000000      6.266431170000000      2.565437960000000
C       6.227312410000000      7.168566010000000      3.193984710000000
Si      3.055274470000000      0.064105770000000      0.037754320000000
C       4.686795430000000      0.946674900000000      0.621197210000000
Si      4.579373340000000      0.907231630000000      2.512278280000000
C       6.103174620000000      1.784991370000000      3.220413610000000
Si      4.652998160000000      2.711243930000000      0.059240890000000
C       6.236385720000000      3.576590590000000      0.752903350000000
Si      6.192994800000000      3.556053820000000      2.613380090000000
C       7.760834950000000      4.500611210000000      3.179784030000000
Si      6.247979830000000      5.363115830000000      0.030562300000000
C       7.831117300000000      6.327309310000000      0.731624740000000
Si      7.760116980000000      6.303281800000000      2.606552590000000
C       9.343393340000000      7.117556220000000      3.273263940000000
Si      6.189457000000000     -0.015027460000000     -0.035197380000000
C       7.708360390000000      0.843159590000000      0.651892400000000
Si      7.682092160000000      0.921409950000000      2.585638570000000
C       9.314885260000000      1.839579360000000      3.122105680000000
Si      7.758548420000000      2.706013380000000      0.106412030000000
C       9.295125840000001      3.575988110000000      0.678744420000000
Si      9.238524740000001      3.575574850000000      2.470379830000000
C      10.916809340000000      4.450851750000000      3.178717570000000
Si      9.342918010000000      5.400382160000000      0.057152260000000
C      10.915500090000000      6.235463720000000      0.703236840000000
Si     10.930803070000000      6.186764460000000      2.563489650000000
C      12.465617890000001      7.132497290000000      3.058144160000000
36

Si     -0.189350740000000     -0.167140980000000     -0.075623670000000
C       1.458860080000000      0.625070930000000      0.441249630000000
Si      1.451840160000000      0.875290400000000      2.370886570000000
C       2.997920420000000      1.834994800000000      3.144770310000000
Si      1.768278430000000      2.509967390000000      0.025538270000000
C       3.362257530000000      3.756092080000000      0.737654610000000
Si      2.998885600000000      3.747304870000000      2.589704540000000
C       4.594168790000000      4.551913540000000      3.090234520000000
Si      3.180438700000000      5.253914000000000      0.064430370000000
C       4.731826020000000      6.298593910000000      0.435623680000000
Si      4.764084730000000      6.329501530000000      2.460939330000000
C       6.155666920000000      7.089760000000000      3.248575300000000
Si      2.936868720000000     -0.062305460000000     -0.226852070000000
C       4.329497500000000      1.027287290000000      0.562996040000000
Si      4.567661240000000      1.076911490000000      2.597670890000000
C       6.075820430000000      1.938176050000000      2.969947890000000
Si      4.827318560000000      3.053452620000000     -0.076542530000000
C       6.354087810000000      3.519203040000000      0.713321830000000
Si      6.200180300000000      3.648439260000000      2.671515190000000
C       7.911397450000000      4.527401160000000      3.078639630000000
Si      6.335625980000000      5.219802320000000      0.038436900000000
C       7.713081490000000      6.419187610000000      0.809772250000000
Si      7.746233610000000      6.295756030000000      2.688452240000000
C       9.260285240000000      7.206405620000000      3.364879230000000
Si      5.874063530000000     -0.165123900000000     -0.140548380000000
C       7.686999450000000      0.707532080000000      0.863278700000000
Si      7.488734660000000      0.869371210000000      2.475856610000000
C       9.137305690000000      1.739945570000000      3.114193150000000
Si      7.905359330000000      2.506641900000000      0.246747250000000
C       9.453346959999999      3.501303770000000      0.606107780000000
Si      9.449853420000000      3.535238220000000      2.505892080000000
C      10.659164300000000      4.333938890000000      3.494995850000000
Si      9.325590800000001      5.364229540000000      0.136921030000000
C      10.694426370000000      6.124491310000000      0.711922250000000
Si     11.084664269999999      6.518557430000000      2.527925500000000
C      12.563734880000000      7.063987820000000      3.286580800000000
36

Si     -0.096163210000000      0.068308310000000     -0.071381490000000
C       1.427796050000000      1.012022020000000      0.606085180000000
Si      1.656658640000000      0.904744680000000      2.454402260000000
C       3.138397610000000      1.884220290000000      3.132453360000000
Si      1.328665740000000      2.924988150000000      0.008577860000000
C       2.913185640000000      3.664526500000000      0.784956060000000
Si      2.897070960000000      3.492986940000000      2.790799950000000
C       4.486787260000000      4.589087650000000      3.290573750000000
Si      3.050305150000000      5.449583650000000     -0.265567120000000
C       4.546839960000000      6.229100370000000      0.494587800000000
Si      4.881750670000000      6.093682350000000      2.413289660000000
C       6.313961840000000      7.060071990000000      2.888964690000000
Si      3.064111380000000      0.076908220000000      0.122321370000000
C       4.586546370000000      0.739238890000000      0.546491960000000
Si      4.846243750000000      0.748264490000000      2.432279530000000
C       6.365901560000000      1.570133800000000      3.310287520000000
Si      4.534327960000000      2.850520680000000      0.312969250000000
C       5.956349700000000      3.744146170000000      0.508119860000000
Si      5.981755900000000      3.380003410000000      2.687685630000000
C       7.618861720000000      4.364795120000000      3.504091390000000
Si      6.187023100000000      5.431732320000000     -0.208051460000000
C       7.871218080000000      6.264067190000000      0.472617860000000
Si      7.743418220000000      6.105380460000000      2.552586100000000
C       9.442317879999999      6.735342580000000      3.067742970000000
Si      6.218504070000000     -0.070684100000000      0.046581370000000
C       7.767848360000000      1.225270210000000      0.769998160000000
Si      7.972598840000000      1.038727380000000      2.611297830000000
C       9.503579040000000      1.606793490000000      3.284232400000000
Si      7.709443880000000      2.854877490000000      0.061681690000000
C       9.129592980000000      3.764689400000000      0.787108160000000
Si      9.274754900000000      3.668334530000000      2.832803080000000
C      10.727594580000000      4.449696830000000      3.265760330000000
Si      9.281843230000000      5.276199630000000     -0.140731490000000
C      10.964504730000000      6.225959370000000      0.555182490000000
Si     11.135127770000000      6.155369920000000      2.399273160000000
C      12.492885060000001      7.042308940000000      3.032605280000000
36

Si      0.164588010000000     -0.171101040000000      0.006426820000000
C       1.933037860000000      0.763105510000000      0.692163050000000
Si      1.725708190000000      1.128483550000000      2.563345210000000
C       3.140679190000000      1.776319450000000      3.332377120000000
Si      1.399759350000000      2.658828390000000      0.103227680000000
C       2.905069500000000      3.485736860000000      0.824492630000000
Si      2.918993480000000      3.757054000000000      2.746828870000000
C       4.574872090000000      4.648969250000000      3.402263280000000
Si      3.250034700000000      5.165865260000000     -0.284514180000000
C       4.775267830000000      6.170610250000000      0.533688780000000
Si      4.714441120000000      6.275388020000000      2.445499580000000
C       6.272805600000000      7.298523310000000      2.930724930000000
Si      3.383511050000000     -0.179160190000000      0.126570760000000
C       4.791022560000000      0.923653550000000      0.678571290000000
Si      4.632155120000000      1.000652410000000      2.563206540000000
C       6.200939030000000      1.557858830000000      3.237272170000000
Si      4.418596150000000      2.653513090000000      0.194564440000000
C       6.027618600000000      3.620629980000000      0.727330450000000
Si      6.140433600000000      3.659580740000000      2.646532070000000
C       7.567633610000000      4.463430000000000      3.391732390000000
Si      6.306941680000000      5.267789730000000     -0.088806860000000
C       7.989951520000000      6.100681620000000      0.494306100000000
Si      7.689354690000000      6.120614270000000      2.501368790000000
C       9.187555110000000      6.991667550000000      2.935453240000000
Si      6.422948820000000      0.076372510000000     -0.004408350000000
C       7.897432710000000      0.999993960000000      0.749664040000000
Si      7.603035220000000      0.856855700000000      2.540461680000000
C       9.351428400000000      2.030700940000000      3.176912670000000
Si      7.627325660000000      2.877705320000000      0.089995590000000
C       9.130306539999999      3.510588080000000      0.460505140000000
Si      9.041812419999999      3.452897020000000      2.653029670000000
C      10.295753090000000      4.706655160000000      3.271087120000000
Si      9.396181479999999      5.418168030000000     -0.293069580000000
C      10.967773920000001      6.213934540000000      0.512851210000000
Si     10.735432720000000      6.346478330000000      2.587181230000000
C      12.469937860000000      7.104697990000000      2.818061740000000
36

Si     -0.105691770000000     -0.145835830000000      0.045134610000000
C       1.386515280000000      0.795478950000000      0.281137740000000
Si      1.330937240000000      1.046021760000000      2.337933020000000
C       3.011446280000000      1.675176090000000      3.146774740000000
Si      1.690889120000000      2.500511980000000     -0.123444530000000
C       3.298090120000000      3.678439920000000      0.607230930000000
Si      3.194021010000000      3.725636190000000      2.473789860000000
C       4.923340400000000      4.568548930000000      3.116642370000000
Si      2.899740830000000      5.338815000000000      0.096171240000000
C       4.525236420000000      6.039764670000000      0.839786010000000
Si      4.857385480000000      6.400640250000000      2.932932720000000
C       6.183256130000000      7.146156830000000      3.384736030000000
Si      2.948744480000000      0.264078220000000     -0.163613880000000
C       4.369581800000000      0.974552180000000      0.622424330000000
Si      4.573150050000000      0.832526740000000      2.508108370000000
C       6.104180300000000      1.719436090000000      2.866188860000000
Si      4.775998600000000      2.716111850000000     -0.004353450000000
C       6.474127750000000      3.699502670000000      0.641338370000000
Si      6.345930990000000      3.607583090000000      2.404819600000000
C       7.929938330000000      4.622081320000000      3.212179920000000
Si      6.175758270000000      5.514659600000000      0.237533620000000
C       7.744357440000000      6.299983510000000      0.890451720000000
Si      7.809926880000000      6.505611210000000      2.672851920000000
C       9.489681940000001      7.181407730000000      3.325172730000000
Si      5.920768670000000     -0.015567960000000     -0.103838010000000
C       7.677644760000000      0.636825290000000      0.651658000000000
Si      7.562784280000000      0.776695400000000      2.567699570000000
C       9.149673210000000      1.751745760000000      3.137403510000000
Si      7.927261970000000      2.399171310000000     -0.115736350000000
C       9.346711400000000      3.344695260000000      0.548392930000000
Si      9.337267150000001      3.525288540000000      2.528504200000000
C      10.884496490000000      4.425662140000000      2.907344600000000
Si      9.302287590000001      5.184800360000000      0.165411170000000
C      10.800043160000000      6.371650290000000      0.688595970000000
Si     10.946411090000000      6.334082440000000      2.579911540000000
C      12.362407749999999      7.097955970000000      3.436743380000000
36

Si     -0.015883460000000     -0.003821890000000     -0.089997230000000
C       1.501025250000000      0.998863380000000      0.553668840000000
Si      1.538365110000000      0.961687910000000      2.405948750000000
C       3.122840860000000      1.749304370000000      3.031151400000000
Si      1.563062760000000      2.732738410000000     -0.084544120000000
C       3.105809980000000      3.584362150000000      0.628730010000000
Si      3.074493350000000      3.597737780000000      2.580239210000000
C       4.631116200000000      4.461130330000000      3.208042840000000
Si      3.028544430000000      5.314630580000000     -0.000930310000000
C       4.567882830000000      6.272858330000000      0.631862430000000
Si      4.529251060000000      6.284146330000000      2.475519070000000
C       6.097412050000000      7.137975750000000      3.172503260000000
Si      3.132853160000000      0.009695340000000      0.003919520000000
C       4.696623720000000      0.889841250000000      0.619178940000000
Si      4.711144190000000      0.816924160000000      2.502002150000000
C       6.194855680000000      1.804991910000000      3.162940860000000
Si      4.703314960000000      2.616312430000000      0.059056560000000
C       6.236089860000000      3.627671740000000      0.771022390000000
Si      6.217149360000000      3.540064970000000      2.618936150000000
C       7.753013040000000      4.432589280000000      3.259825300000000
Si      6.263160740000000      5.391132250000000      0.101275610000000
C       7.792030050000000      6.174618940000000      0.747417110000000
Si      7.700655760000000      6.170028410000000      2.609946220000000
C       9.245879049999999      7.099798670000000      3.223979540000000
Si      6.231203150000000      0.069855310000000      0.000158450000000
C       7.782904440000000      0.951405690000000      0.694179080000000
Si      7.790309680000000      0.846916870000000      2.545892760000000
C       9.225644070000000      1.770049750000000      3.245452040000000
Si      7.700186580000000      2.656192320000000      0.114559680000000
C       9.322493059999999      3.598136260000000      0.604824170000000
Si      9.314047009999999      3.678169540000000      2.462092200000000
C      10.822830450000000      4.444589850000000      3.262432570000000
Si      9.310899290000000      5.354489410000000     -0.024203480000000
C      10.872697499999999      6.340309800000000      0.658722300000000
Si     10.840948610000000      6.290227920000000      2.589022300000000
C      12.361903809999999      7.120119520000000      3.227937900000000
36

Si     -0.024790280000000     -0.037808340000000     -0.120903230000000
C       1.467692170000000      0.940485920000000      0.442377340000000
Si      1.498125910000000      0.877330860000000      2.427617900000000
C       3.144977930000000      1.826876900000000      3.065166350000000
Si      1.605044190000000      2.700392740000000     -0.100499120000000
C       3.093734850000000      3.545605470000000      0.621264950000000
Si      3.063236760000000      3.620357900000000      2.537779780000000
C       4.563993490000000      4.473533840000000      3.096380600000000
Si      3.116976590000000      5.356315970000000      0.072023940000000
C       4.655340800000000      6.257741730000000      0.620198190000000
Si      4.564050190000000      6.268173320000000      2.497259670000000
C       6.175654090000000      7.164007090000000      3.239557340000000
Si      3.095586520000000      0.059263290000000      0.060982220000000
C       4.684833200000000      0.882644370000000      0.644861390000000
Si      4.579978770000000      0.799191950000000      2.481297360000000
C       6.199394520000000      1.849511810000000      3.199439420000000
Si      4.685413260000000      2.742846330000000      0.076620280000000
C       6.253872450000000      3.486119490000000      0.760278710000000
Si      6.122683580000000      3.570916190000000      2.644864190000000
C       7.771685710000000      4.489359080000000      3.236610660000000
Si      6.277611370000000      5.303895790000000      0.081767800000000
C       7.823303810000000      6.232455890000000      0.743658560000000
Si      7.644324440000000      6.282434270000000      2.642775730000000
C       9.347893450000001      7.082929460000000      3.220623170000000
Si      6.230823660000000      0.032284670000000      0.033515980000000
C       7.799467260000000      0.827882670000000      0.623472480000000
Si      7.721877950000000      0.995993620000000      2.532536410000000
C       9.301771690000001      1.824852130000000      3.112194050000000
Si      7.763964730000000      2.640365820000000      0.098099920000000
C       9.383212860000000      3.625173160000000      0.598673520000000
Si      9.336518440000001      3.619472780000000      2.541901540000000
C      10.833880100000000      4.423103130000000      3.221565640000000
Si      9.389780999999999      5.406574840000000      0.025657220000000
C      10.853894690000001      6.269737680000000      0.576406840000000
Si     10.784440070000000      6.116104970000000      2.548448920000000
C      12.394805939999999      7.193511900000000      3.183424390000000
36

Si      0.098319780000000      0.078396480000000      0.179734180000000
C       1.622688590000000      0.958995400000000      0.682817720000000
Si      1.464001390000000      1.013172880000000      2.603056800000000
C       3.082029570000000      1.905992090000000      3.169598020000000
Si      1.710733160000000      2.673289560000000     -0.014620420000000
C       3.103047400000000      3.682607700000000      0.518111730000000
Si      3.091213640000000      3.587575400000000      2.415566480000000
C       4.875668650000000      4.601082270000000      3.173252130000000
Si      3.024003780000000      5.543504720000000      0.108078820000000
C       4.646453620000000      6.351600380000000      0.609782050000000
Si      4.704084380000000      6.436112770000000      2.592440920000000
C       6.185501480000000      7.226232780000000      3.329962320000000
Si      3.138829420000000     -0.094594180000000      0.018331480000000
C       4.775048880000000      0.876665030000000      0.694100290000000
Si      4.601178320000000      0.791292780000000      2.610872240000000
C       6.059858930000000      1.658925200000000      3.191865770000000
Si      4.634785700000000      2.546218030000000     -0.013814850000000
C       6.073051990000000      3.516108390000000      0.670181880000000
Si      6.227695330000000      3.548128280000000      2.602811200000000
C       7.834551200000000      4.342088000000000      3.033880400000000
Si      6.057144630000000      5.211057660000000      0.150210740000000
C       7.773172730000000      6.215450190000000      0.695278060000000
Si      7.671607240000000      6.168671170000000      2.506508190000000
C       9.209590909999999      7.093047050000000      3.217184210000000
Si      6.192469640000000     -0.069168550000000     -0.185477890000000
C       7.725360830000000      0.713014690000000      0.541878400000000
Si      7.690477020000000      0.971135620000000      2.539979330000000
C       9.108156940000001      1.801851310000000      3.063987170000000
Si      7.701685410000000      2.671921630000000      0.001217520000000
C       9.313910610000001      3.461176970000000      0.562868000000000
Si      9.446766739999999      3.571834330000000      2.432519280000000
C      10.972889770000000      4.538606520000000      3.051974060000000
Si      9.232849800000000      5.335725170000000      0.068046820000000
C      10.795932840000001      6.354021490000000      0.580893980000000
Si     10.873143470000000      6.299623320000000      2.570940900000000
C      12.346172010000000      7.262239150000000      3.173820500000000
36

Si      0.061183610000000      0.103827630000000     -0.006870340000000
C       1.702497170000000      0.804206690000000      0.411009130000000
Si      1.548857450000000      0.883854000000000      2.585417000000000
C       3.185608800000000      1.802262520000000      2.950649170000000
Si      1.713649160000000      2.842814350000000     -0.118134600000000
C       3.175159800000000      3.732592920000000      0.513442940000000
Si      3.100935450000000      3.654937530000000      2.589026850000000
C       4.676230500000000      4.547181060000000      3.032684380000000
Si      2.961685270000000      5.432768860000000      0.154223940000000
C       4.516578840000000      6.327257550000000      0.586769630000000
Si      4.745450140000000      6.249517600000000      2.574106360000000
C       6.175043620000000      7.080265690000000      3.337068240000000
Si      3.099767520000000     -0.183275320000000      0.003034100000000
C       4.561402990000000      0.960921760000000      0.469898130000000
Si      4.674758330000000      0.914186760000000      2.523131620000000
C       6.143520080000000      1.693615160000000      3.061446750000000
Si      4.706954390000000      2.643945360000000      0.075755210000000
C       6.081745430000000      3.524025790000000      0.625181060000000
Si      6.231399350000000      3.532215090000000      2.581099150000000
C       7.836542020000000      4.260985270000000      3.152120400000000
Si      5.829437400000000      5.272751430000000      0.071772020000000
C       7.632626960000000      6.087091740000000      0.663581570000000
Si      7.729442080000000      6.233182930000000      2.581955470000000
C       9.202634300000000      7.137834350000000      3.068657890000000
Si      6.070369790000000      0.055892250000000      0.016503750000000
C       7.755085680000000      0.896175380000000      0.610339240000000
Si      7.771001580000000      0.898096350000000      2.541676640000000
C       9.466438470000000      1.760635290000000      3.276189720000000
Si      7.962471960000000      2.693926000000000      0.042724850000000
C       9.502804149999999      3.593877210000000      0.676071170000000
Si      9.379712659999999      3.624957380000000      2.686165360000000
C      10.869931590000000      4.610320690000000      3.200705510000000
Si      9.142531950000000      5.354768950000000      0.027998390000000
C      10.712093230000001      6.363195510000000      0.705569910000000
Si     10.809361429999999      6.209219340000000      2.462543690000000
C      12.358631409999999      7.064652040000000      3.138995650000000
36

Si     -0.114706300000000      0.067404860000000      0.099974390000000
C       1.531958080000000      0.930975890000000      0.657831430000000
Si      1.589298570000000      0.732974240000000      2.626009620000000
C       3.174711800000000      1.702145550000000      3.224525800000000
Si      1.406714360000000      2.603584540000000     -0.101625100000000
C       2.958093110000000      3.466515980000000      0.669265880000000
Si      2.935943200000000      3.368001990000000      2.537621480000000
C       4.549089480000000      4.420911230000000      2.972992020000000
Si      3.140064700000000      5.222899540000000     -0.074385510000000
C       4.775833810000000      6.127284580000000      0.621727900000000
Si      4.634066900000000      6.203898640000000      2.428881720000000
C       6.095825830000000      7.057608200000000      2.958663090000000
Si      3.163695260000000      0.000835900000000     -0.004333550000000
C       4.717559470000000      0.919242840000000      0.585824650000000
Si      4.790226000000000      0.907090580000000      2.455077660000000
C       6.110930800000000      1.827706370000000      3.044303410000000
Si      4.557516840000000      2.930825090000000      0.022043200000000
C       6.204735120000000      3.673571130000000      0.620323350000000
Si      6.145676280000000      3.689202750000000      2.490400890000000
C       7.760034710000000      4.703252640000000      3.231950670000000
Si      6.346023240000000      5.357279290000000     -0.002713490000000
C       7.760071450000000      6.407873910000000      0.548626420000000
Si      7.837557500000000      6.227564670000000      2.585982170000000
C       9.362031990000000      7.053568400000000      3.155663960000000
Si      6.208397450000000      0.084073410000000      0.047762950000000
C       7.654935230000000      0.900833500000000      0.636810440000000
Si      7.796995480000000      0.901572780000000      2.608666180000000
C       9.131878720000000      1.916103540000000      3.326806980000000
Si      7.752289270000000      2.804692190000000      0.062478970000000
C       9.292666510000000      3.625303980000000      0.841479710000000
Si      9.264179960000000      3.636320850000000      2.660072000000000
C      10.905227450000000      4.375478880000000      3.154082570000000
Si      9.315314170000001      5.504595630000000      0.152701450000000
C      10.868868490000001      6.153262460000000      0.696367470000000
Si     10.873447199999999      6.120547750000000      2.516025330000000
C      12.457568309999999      7.112245150000000      3.191344910000000
36

Si     -0.001114540000000     -0.020976330000000      0.094958270000000
C       1.554421170000000      0.950009310000000      0.604504590000000
Si      1.523968690000000      0.952604720000000      2.610041790000000
C       3.125752860000000      1.931506980000000      3.310925310000000
Si      1.526033670000000      2.680992520000000     -0.040989450000000
C       3.122288910000000      3.500253380000000      0.605733620000000
Si      3.098570280000000      3.515724960000000      2.503201880000000
C       4.664283400000000      4.429287450000000      3.158577830000000
Si      3.140619910000000      5.327941550000000      0.024621710000000
C       4.712643690000000      6.200030700000000      0.694482060000000
Si      4.735153010000000      6.232426830000000      2.648963810000000
C       6.217708530000000      7.207147530000000      3.214884880000000
Si      2.990617800000000      0.056128260000000      0.012580400000000
C       4.577194400000000      0.902818740000000      0.633579630000000
Si      4.624625490000000      0.942034300000000      2.466858440000000
C       6.200712540000000      1.809653380000000      3.145033490000000
Si      4.596138610000000      2.638393640000000      0.038380100000000
C       6.125859300000000      3.521256930000000      0.641321670000000
Si      6.269842520000000      3.648917270000000      2.608383230000000
C       7.806356000000000      4.576616600000000      3.249918990000000
Si      6.192395950000000      5.299839880000000     -0.012941610000000
C       7.712824980000000      6.307508420000000      0.565987960000000
Si      7.779658690000000      6.327542490000000      2.503654970000000
C       9.347355240000001      7.139064640000000      3.107431310000000
Si      6.141600610000000     -0.016330060000000      0.027737010000000
C       7.702596340000000      0.896889380000000      0.676769650000000
Si      7.777683570000000      0.893784220000000      2.490441040000000
C       9.256766640000000      1.803479050000000      3.235860490000000
Si      7.713494940000000      2.619859260000000     -0.015922430000000
C       9.189284880000001      3.546953900000000      0.634651430000000
Si      9.215357250000000      3.669470800000000      2.492488350000000
C      10.867012989999999      4.381728020000000      3.114654110000000
Si      9.266490070000000      5.403557670000000      0.027339170000000
C      10.888996770000000      6.226216810000000      0.677123000000000
Si     10.954006800000000      6.152962340000000      2.507798280000000
C      12.468080120000000      7.133465630000000      3.154869540000000
36

Si     -0.223790360000000     -0.029180510000000     -0.255637300000000
C       1.466542120000000      0.776954490000000      0.299865490000000
Si      1.307568500000000      1.071727260000000      2.287168830000000
C       2.810885470000000      1.838298930000000      3.050153370000000
Si      1.674482520000000      2.561374080000000     -0.043331100000000
C       3.077500580000000      3.598806070000000      0.789183420000000
Si      3.296360910000000      3.752291740000000      2.494981140000000
C       4.830397410000000      4.503391620000000      3.148420060000000
Si      3.207010110000000      5.284545720000000     -0.175550290000000
C       4.532560750000000      6.281600410000000      0.529907850000000
Si      4.523954330000000      6.345905090000000      2.589306260000000
C       5.954613050000000      7.291179980000000      3.110545230000000
Si      3.074551850000000     -0.292566230000000     -0.198881240000000
C       4.656864500000000      0.740944420000000      0.617762940000000
Si      4.390528890000000      1.092541900000000      2.377549110000000
C       6.116372230000000      1.731292150000000      3.076600850000000
Si      4.796724040000000      2.673142360000000     -0.063736310000000
C       6.403391730000000      3.468435110000000      0.744397180000000
Si      6.325254650000000      3.590796210000000      2.753136050000000
C       7.937359610000000      4.608063420000000      3.116316480000000
Si      6.132792720000000      5.313653230000000      0.037097010000000
C       7.644678680000000      6.202192690000000      0.556085680000000
Si      7.850910390000000      6.281426790000000      2.546907850000000
C       9.212531950000001      7.349402130000000      3.106701460000000
Si      6.297541350000000     -0.156665020000000      0.179361930000000
C       7.718086700000000      0.749424960000000      0.577136050000000
Si      7.646578120000000      0.857372710000000      2.618787370000000
C       9.057169230000000      1.789582910000000      3.277011230000000
Si      7.863562450000000      2.674524850000000      0.102239960000000
C       9.484219260000000      3.768719110000000      0.874604360000000
Si      9.330224940000001      3.440219440000000      2.717540350000000
C      11.058110740000000      4.583296260000000      3.328288640000000
Si      9.444025290000001      5.450295550000000      0.114122940000000
C      10.993530090000000      6.271158370000000      0.850497000000000
Si     10.680124240000000      6.284499960000000      2.889066070000000
C      12.414015930000000      7.212714440000000      3.413674070000000
36

Si      0.154831710000000     -0.069109320000000      0.049608680000000
C       1.428294950000000      1.086052190000000      0.723847270000000
Si      1.462524380000000      0.888597070000000      2.655214220000000
C       2.860410510000000      1.731604600000000      3.209974240000000
Si      1.730186680000000      2.739792150000000     -0.035344470000000
C       3.145454860000000      3.476713140000000      0.721251750000000
Si      3.305260720000000      3.780184130000000      2.533631980000000
C       4.903927650000000      4.294704210000000      3.116413720000000
Si      2.919781080000000      5.305333600000000      0.220710930000000
C       4.813458840000000      6.257896010000000      0.803987980000000
Si      4.717744560000000      6.306409800000000      2.711713440000000
C       6.341595280000000      6.975423630000000      3.585156670000000
Si      2.920140870000000      0.122496870000000      0.096522210000000
C       4.681880050000000      1.109524100000000      0.483604150000000
Si      4.444928410000000      0.899412420000000      2.425792040000000
C       6.224266360000000      1.654373480000000      3.153823700000000
Si      4.784760980000000      2.855577490000000     -0.301386200000000
C       6.122331420000000      3.705107380000000      0.609942720000000
Si      6.371916950000000      3.416619170000000      2.415707730000000
C       8.058334620000000      4.642865280000000      3.066994510000000
Si      6.267284170000000      5.495688710000000      0.264532470000000
C       7.711075920000000      6.380855410000000      0.758082380000000
Si      7.792835230000000      6.470524170000000      2.678811580000000
C       9.385052060000000      7.293046680000000      3.135765000000000
Si      6.136506550000000      0.113854260000000     -0.098930060000000
C       7.659851780000000      0.898913160000000      0.587338550000000
Si      7.365144930000000      0.518723730000000      2.326785390000000
C       9.119939230000000      1.602465960000000      2.884235730000000
Si      7.723505380000000      2.601494130000000     -0.165091770000000
C       9.451976999999999      3.575635450000000      0.557607820000000
Si      9.272294820000001      3.328934210000000      2.435449530000000
C      10.915511110000001      4.419148010000000      3.019853810000000
Si      9.154335769999999      5.414637350000000      0.178552340000000
C      10.750193100000001      6.392058600000000      0.690223190000000
Si     10.856442870000000      6.141785020000000      2.657606130000000
C      12.351744869999999      6.953281080000000      3.172549890000000
36

Si     -0.151161830000000     -0.005813950000000     -0.189430470000000
C       1.478299530000000      0.720292900000000      0.409328310000000
Si      1.503659940000000      0.775739090000000      2.458906210000000
C       3.088081110000000      1.767812410000000      3.037246910000000
Si      1.665780020000000      2.644181490000000      0.072886810000000
C       3.046555260000000      3.655291690000000      0.763332400000000
Si      3.076616600000000      3.523778640000000      2.590986940000000
C       4.495714700000000      4.577559430000000      3.230633130000000
Si      3.036460980000000      5.375658680000000      0.094476830000000
C       4.653261600000000      6.194973160000000      0.602454000000000
Si      4.824344640000000      6.117293060000000      2.600734690000000
C       6.340463030000000      7.045720950000000      3.283500350000000
Si      3.084973450000000     -0.064681110000000      0.022658260000000
C       4.629438300000000      1.025911380000000      0.530140230000000
Si      4.654885970000000      1.029559010000000      2.464179550000000
C       6.140020110000000      1.818143720000000      2.965187700000000
Si      4.522781090000000      2.787058750000000      0.193580580000000
C       6.110252300000000      3.651750590000000      0.599408510000000
Si      6.180473570000000      3.733528510000000      2.460509260000000
C       7.698072960000000      4.488033590000000      3.134739670000000
Si      6.086450320000000      5.413066460000000     -0.064314730000000
C       7.779560110000000      6.253124020000000      0.633610600000000
Si      7.989332090000000      6.264473330000000      2.639545950000000
C       9.412060009999999      7.305710150000000      3.076583860000000
Si      6.068928800000000     -0.003140060000000     -0.076181300000000
C       7.748964740000000      0.821482220000000      0.609790920000000
Si      7.768278980000000      0.784728320000000      2.601542120000000
C       9.393125169999999      1.612984580000000      3.211634370000000
Si      7.767247560000000      2.731600550000000      0.224536140000000
C       9.453275180000000      3.758852940000000      0.774464140000000
Si      9.197283850000000      3.757130180000000      2.610836280000000
C      10.893231760000001      4.429732600000000      3.297416810000000
Si      9.285888610000001      5.222148730000000     -0.126837900000000
C      10.914595329999999      6.309736020000000      0.740540000000000
Si     10.923561310000000      6.206116130000000      2.581055550000000
C      12.403963800000000      7.102649380000000      3.123930190000000
36

Si     -0.089330520000000     -0.033853180000000     -0.192766750000000
C       1.445068800000000      0.783146400000000      0.530290180000000
Si      1.300220970000000      0.832441010000000      2.489595800000000
C       2.924739970000000      2.006544490000000      3.068851710000000
Si      1.485818840000000      2.693885110000000     -0.052634920000000
C       3.262475260000000      3.424496130000000      0.656985460000000
Si      3.299273820000000      3.599628360000000      2.454107600000000
C       4.836454950000000      4.596837990000000      3.238507460000000
Si      3.004340650000000      5.417954490000000     -0.027091210000000
C       4.709131500000000      6.193570070000000      0.641417050000000
Si      4.643567250000000      6.300493250000000      2.559071250000000
C       6.196980970000000      7.172204590000000      3.116791510000000
Si      2.958793510000000      0.043277300000000     -0.188694770000000
C       4.487690130000000      0.948476420000000      0.335170360000000
Si      4.479358980000000      0.964842490000000      2.626460920000000
C       6.200296660000000      1.792261060000000      2.983751150000000
Si      4.764296270000000      2.692370200000000     -0.122678320000000
C       6.158112420000000      3.567867350000000      0.544877600000000
Si      6.429113010000000      3.786715280000000      2.619733430000000
C       7.988539970000000      4.400287340000000      3.190555320000000
Si      6.162384920000000      5.269143940000000      0.225127010000000
C       7.673304810000000      6.255982110000000      0.590125010000000
Si      7.702990930000000      6.404369590000000      2.529771660000000
C       9.164810689999999      7.079988760000000      3.390888440000000
Si      6.194424990000000      0.011192710000000     -0.075896330000000
C       7.758361870000000      0.988251700000000      0.780642010000000
Si      7.641882510000000      0.748043350000000      2.538581750000000
C       9.200203050000001      1.612085810000000      3.159567120000000
Si      7.874901510000000      2.549197370000000      0.104285060000000
C       9.297217590000001      3.583178340000000      0.595038800000000
Si      9.510977970000001      3.426609750000000      2.555492150000000
C      10.952698549999999      4.349856320000000      3.123268270000000
Si      9.372373120000001      5.501741660000000      0.254858240000000
C      10.922203450000000      6.319327750000000      0.801048580000000
Si     10.816980920000001      6.206294510000000      2.831198020000000
C      12.344950720000000      7.180308420000000      3.349005030000000
